C  H 
 1.0000000000000000
    15.0000000000000000    0.0000000000000000    0.0000000000000000
     0.0000000000000000   15.5000000000000000    0.0000000000000000
     0.0000000000000000    0.0000000000000000   16.0000000000000000
 C   H  
   3   6
Direct
  0.5759106666666667  0.5082115161290323  0.5000000000000000
  0.4898246666666666  0.5305003548387096  0.5000000000000000
  0.4138408666666667  0.4678229354838710  0.5000000000000000
  0.5965686666666666  0.4410436451612904  0.5000000000000000
  0.6285446666666666  0.5561892580645162  0.5000000000000000
  0.4722766000000000  0.5986899677419356  0.5000000000000000
  0.4380340666666667  0.4013100322580645  0.5000000000000000
  0.3714553333333334  0.4768216451612904  0.5550262500000001
  0.3714553333333334  0.4768216451612904  0.4449737500000000
