C  H 
 1.0000000000000000
    15.0000000000000000    0.0000000000000000    0.0000000000000000
     0.0000000000000000   15.5000000000000000    0.0000000000000000
     0.0000000000000000    0.0000000000000000   16.0000000000000000
 C   H  
   3   7
Direct
  0.5072140666666667  0.5163767419354839  0.5000000000000000
  0.5072140666666667  0.4684030645161290  0.5807232500000000
  0.5072140666666667  0.4684030645161290  0.4192767500000000
  0.4847398666666666  0.5829237741935483  0.5000000000000000
  0.5210269999999999  0.5109137741935483  0.6336548125000000
  0.5210269999999999  0.5109137741935483  0.3663451875000000
  0.4425887333333333  0.4371200322580645  0.5927895625000000
  0.5574112666666666  0.4170762258064516  0.5803899375000000
  0.5574112666666666  0.4170762258064516  0.4196100625000000
  0.4425887333333333  0.4371200322580645  0.4072104375000000
