Zn O 
 1.0000000000000000
     8.0972909927368164    0.0000000000000000   -0.5697230100631714
    -3.4473609924316406    7.3267879486083984    0.5697230100631714
     0.0000000000000000    0.0000000000000000   33.0439567565917969
 Zn  O  
  36  30
Cartesian
  5.5422644615173340  1.6154211759567261 19.9327049255371094
 -0.2252838164567947  5.2868905067443848 20.5096893310546875
  0.1300110369920731  0.1263267993927002 21.9396400451660156
  2.2690794467926025  3.4974558353424072 21.9229869842529297
  3.1632723808288574  3.1683990955352783 18.8914527893066406
 -2.6424765586853027  6.7868671417236328 19.4594726562500000
  2.7995171546936035  0.7819898128509521 20.7475223541259766
  5.2090048789978027  4.4088635444641113 20.7498226165771484
  3.1917912960052490  5.6841812133789062 22.5978393554687500
 -0.8978716135025024  3.1305363178253174 23.2942714691162109
  2.5696976184844971  6.0790882110595703 19.6566314697265625
  0.3336032032966614  2.3530793190002441 19.8292293548583984
 -1.6474763154983521  6.1850252151489258 16.5594253540039062
  4.1306815147399902  2.5151433944702148 15.9795808792114258
  6.5303983688354492  1.0111476182937622 17.1516609191894531
  0.7492665648460388  4.6467270851135254 17.7262516021728516
  1.7558311223983765  4.0243034362792969 14.9100131988525391
  7.4714107513427734  0.3958900868892670 14.3488531112670898
  1.2808643579483032  1.7588250637054443 16.8744316101074219
  3.6116628646850586  5.4157299995422363 16.8643074035644531
  3.6557343006134033  0.2496540695428848 17.9440135955810547
  6.0374307632446289  3.8780710697174072 17.9354476928710938
  1.2149282693862915  6.9540171623229980 15.6974859237670898
 -1.1188443899154663  3.2628192901611328 15.7023706436157227
  2.6120500564575195  3.4919629096984863 12.1064996719360352
 -3.2448081970214844  7.1918849945068359 12.6739368438720703
 -0.6055033206939697  5.5216636657714844 13.7671270370483398
  5.0779690742492676  1.9208701848983765 13.0248317718505859
  6.3092679977416992  1.1435153484344482  9.5599498748779297
 -1.2275408506393433  5.9165296554565430 10.8259534835815430
  2.1894843578338623  6.3138504028320312 12.9140634536743164
 -0.1307015269994736  2.6585369110107422 12.9213256835937500
  2.2482781410217285  1.1055623292922974 13.9625787734985352
  4.6066727638244629  4.8138790130615234 13.9642801284790039
  3.1425096988677979  0.7764822840690613 10.9310932159423828
  5.2815766334533691  4.1476078033447266 10.9144210815429688
  7.1518101692199707  0.5044138431549072 19.2344379425048828
  1.4617619514465332  4.3108820915222168 19.8195114135742188
 -1.8947241306304932  6.1626806259155273 21.3733501434326172
  4.0288462638854980  2.7720124721527100 20.7944583892822266
  1.9611954689025879  1.3076412677764893 18.8248214721679688
  4.2623481750488281  5.0193500518798828 18.8857002258300781
  0.8951973319053650  7.1512174606323242 20.5845718383789062
 -1.3312549591064453  3.4095671176910400 20.4129028320312500
  1.3268046379089355  1.7301187515258789 21.6200942993164062
  4.8150100708007812  2.0739507675170898 17.9480018615722656
 -0.9349508285522461  5.7447252273559570 18.5178089141845703
  0.0774151533842087  5.0818057060241699 15.7143468856811523
  5.7938628196716309  1.4676501750946045 15.1417741775512695
 -3.3534233570098877  7.2439928054809570 17.4433364868164062
  2.4521858692169189  3.6051216125488281 16.9212112426757812
  2.8991434574127197  5.8560247421264648 14.9059667587280273
  0.5965412259101868  2.2000136375427246 14.9060497283935547
  2.9593689441680908  0.6688407659530640 15.9328575134277344
  5.3176107406616211  4.3567557334899902 15.9804449081420898
  1.8867909908294678  6.5189399719238281 17.7094306945800781
 -0.3823253214359283  2.8063175678253174 17.7122592926025391
 -2.2981524467468262  6.5814042091369629 14.5380811691284180
  3.4503421783447266  2.9663257598876953 14.0292348861694336
  4.0847811698913574  2.5438227653503418 11.2339801788330078
  6.7428197860717773  0.8643971681594849 12.4411449432373047
  1.0689942836761475  4.4495286941528320 12.8391723632812500
  1.3827207088470459  1.5019308328628540 12.0595855712890625
  3.8589358329772949  5.4380636215209961 12.0504169464111328
  3.9497923851013184 -0.0369325801730156 13.0345354080200195
 -1.7402492761611938  3.7695524692535400 13.6196212768554688
