Zn O 
 1.0000000000000000
     8.0972909927368164    0.0000000000000000   -0.5697230100631714
    -3.4473609924316406    7.3267879486083984    0.5697230100631714
     0.0000000000000000    0.0000000000000000   33.0439567565917969
 Zn  O  
  36  34
Cartesian
  5.5591464042663574  1.6196620464324951 20.2133998870849609
 -0.2162529826164246  5.2683811187744141 20.8105010986328125
  8.0350627899169922  0.1109252274036407 21.0898914337158203
  2.1968841552734375  3.6726193428039551 21.6633663177490234
  3.1665530204772949  3.1343791484832764 18.8441524505615234
 -2.6144034862518311  6.7939662933349609 19.4120273590087891
  2.7074496746063232  0.8422169089317322 20.8065471649169922
  5.0544638633728027  4.5038418769836426 20.7210826873779297
  2.2353293895721436  6.2953419685363770 22.3061065673828125
 -0.4314924180507660  2.8403491973876953 22.5419635772705078
  2.6423549652099609  6.0307765007019043 19.5908317565917969
  0.3058229386806488  2.3758740425109863 19.6825885772705078
 -1.6457340717315674  6.1857476234436035 16.6207866668701172
  4.1330399513244629  2.5141162872314453 16.0279731750488281
  6.5086388587951660  1.0097172260284424 17.1633892059326172
  0.7384875416755676  4.6685490608215332 17.7372093200683594
  1.7487338781356812  4.0267243385314941 14.8869228363037109
  7.4831109046936035  0.3904203474521637 14.2870035171508789
  1.2785164117813110  1.7598421573638916 16.8260765075683594
  3.6099305152893066  5.4150009155273438 16.8029861450195312
  3.6628243923187256  0.2472349107265472 17.9671344757080078
  6.0257377624511719  3.8835375308990479 17.9973220825195312
  1.2257080078125000  6.9321970939636230 15.6865644454956055
 -1.0970810651779175  3.2642436027526855 15.6906614303588867
  2.7041041851043701  3.4317452907562256 12.0475015640258789
 -3.0902659893035889  7.0969028472900391 12.7026872634887695
 -0.6781566739082336  5.5699682235717773 13.8329420089721680
  5.1057343482971191  1.8980840444564819 13.1714620590209961
  5.8430514335632324  1.4336094856262207 10.3120784759521484
 -0.2711422741413116  5.3054084777832031 11.1176691055297852
  2.1804473400115967  6.3323678970336914 12.6132650375366211
 -0.1475908309221268  2.6542980670928955 12.6406459808349609
  2.2450044155120850  1.1395778656005859 14.0098962783813477
  4.5785999298095703  4.8067827224731445 14.0117444992065430
  3.2146716117858887  0.6013451218605042 11.1906814575195312
  5.4737792015075684  4.1630334854125977 11.1944322586059570
  6.6206703186035156  1.2164720296859741 21.9507656097412109
  0.6027789115905762  4.4709687232971191 22.5403194427490234
  7.1733183860778809  0.4737254083156586 19.1035594940185547
  1.4887005090713501  4.3106112480163574 19.6761531829833984
 -2.1127738952636719  6.2256460189819336 21.4612197875976562
  3.8807284832000732  2.9363245964050293 20.8754806518554688
  1.9859341382980347  1.2933880090713501 18.8243846893310547
  4.3049521446228027  4.9934258460998535 18.7654514312744141
  0.8526970744132996  7.1583580970764160 20.9230403900146484
 -1.3675956726074219  3.4490532875061035 20.5106601715087891
  1.2052279710769653  1.8044651746749878 21.5444049835205078
  4.8197379112243652  2.0098731517791748 18.0753879547119141
 -0.9130147695541382  5.7866559028625488 18.5995559692382812
  0.0798671543598175  5.0840044021606445 15.7295122146606445
  5.8063154220581055  1.4576023817062378 15.1345672607421875
 -3.3563427925109863  7.2798833847045898 17.3865108489990234
  2.4483075141906738  3.5733480453491211 16.8746032714843750
  2.8772127628326416  5.8140940666198730 14.8242177963256836
  0.5918162465095520  2.2640841007232666 14.7786607742309570
  2.9632527828216553  0.7006071209907532 15.9794464111328125
  5.3205428123474121  4.3208627700805664 16.0372600555419922
  1.8843284845352173  6.5167417526245117 17.6942577362060547
 -0.3947566747665405  2.8163559436798096 17.7194843292236328
 -2.3407537937164307  6.6073184013366699 14.6583185195922852
  3.4256234169006348  2.9805700778961182 14.0296630859375000
  4.2063217163085938  2.4694974422454834 11.3096399307250977
  6.7791528701782227  0.8249040246009827 12.3433856964111328
  1.1114971637725830  4.4423913955688477 12.5007266998291016
  1.3614164590835571  7.1297841072082520 10.8834514617919922
 -1.2091145515441895  3.0574865341186523 10.9032831192016602
  1.5308262109756470  1.3376348018646240 11.9785671234130859
  4.0769672393798828  5.3751039505004883 11.9625501632690430
  3.9228563308715820 -0.0366512313485146 13.1778945922851562
 -1.7617644071578979  3.8002369403839111 13.7504873275756836
