Ni O 
 1.0000000000000000
     8.4025077819824219    0.0000000000000000    0.0000000000000000
     0.0000000000000000    8.4025077819824219    0.0000000000000000
     0.0000000000000000    0.0000000000000000   42.0125389099121094
 Ni  O  
  52  58
Cartesian
  6.2446994781494141  2.1609461307525635 15.6205797195434570
 -0.0000068900567385 -0.0000279803516605 15.4202537536621094
  2.1580967903137207  2.1611442565917969 15.6205940246582031
  2.1576707363128662  6.2415881156921387 15.6205539703369141
  4.2012410163879395  0.0004799512680620 15.6542282104492188
  6.2445240020751953  6.2412991523742676 15.6206121444702148
 -0.0003192953008693  4.2012739181518555 15.6638860702514648
  4.2012329101562500  2.1184589862823486 17.7005615234375000
  2.1184329986572266  4.2012581825256348 17.7044715881347656
  4.2012810707092285  6.2840332984924316 17.7006473541259766
  6.2841086387634277  4.2012414932250977 17.7043704986572266
  2.0623991489410400  0.0000880582811078 17.7227249145507812
  6.3400974273681641 -0.0000706650898792 17.7227497100830078
 -0.0000879742583493  6.3408184051513672 17.7265300750732422
  0.0000572210810788  2.0616946220397949 17.7265453338623047
 -0.0000119315609481  4.2012491226196289 19.8495140075683594
  2.0683951377868652  2.0676741600036621 19.8388690948486328
  4.2012705802917480 -0.0000155446396093 19.8456497192382812
  2.0686156749725342  6.3346142768859863 19.8386821746826172
  4.2012562751770020  4.2012639045715332 19.8430213928222656
  6.3340940475463867  6.3348336219787598 19.8388710021972656
  6.3338928222656250  2.0679025650024414 19.8387107849121094
 -0.0000783113719081  2.0683991909027100 21.9254035949707031
  2.0688722133636475 -0.0000826806790428 21.9245815277099609
  0.0000769669713918  6.3341135978698730 21.9254207611083984
  6.3336305618286133  0.0000688165382599 21.9245986938476562
  6.2697153091430664  4.2013072967529297 21.9855594635009766
  2.1327843666076660  4.2012181282043457 21.9855575561523438
  4.2012057304382324  2.1318764686584473 21.9842700958251953
  4.2013092041015625  6.2706599235534668 21.9843654632568359
  6.2685813903808594  2.1340491771697998 24.0708999633789062
  0.0000126877866933  0.0000013444013121 24.0665931701660156
  2.1338989734649658  2.1339983940124512 24.0708503723144531
  2.1339650154113770  6.2684493064880371 24.0708675384521484
  4.2012596130371094 -0.0000712532710168 24.0626659393310547
  6.2685670852661133  6.2684974670410156 24.0708255767822266
 -0.0000126037621158  4.2012577056884766 24.0628795623779297
  4.2011976242065430  2.1384005546569824 26.1848545074462891
  2.1383485794067383  4.2012543678283691 26.1842765808105469
  4.2013020515441895  6.2640905380249023 26.1848316192626953
  6.2641654014587402  4.2012934684753418 26.1842823028564453
  2.0825970172882080 -0.0000047894295676 26.2074451446533203
  6.3199415206909180 -0.0000049574796321 26.2073745727539062
  0.0000015964765225  6.3197760581970215 26.2076396942138672
  0.0000219305456994  2.0827400684356689 26.2076988220214844
 -0.0000094108090707  4.2010126113891602 28.2522354125976562
  2.0407238006591797  2.0407328605651855 28.2879085540771484
  4.2008709907531738 -0.0000101670348158 28.2521419525146484
  2.0405800342559814  6.3619756698608398 28.2876949310302734
  4.2012572288513184  4.2012557983398438 28.4857845306396484
  6.3617625236511230  6.3617510795593262 28.2878913879394531
  6.3619928359985352  2.0405807495117188 28.2876815795898438
  8.4025077819824219  0.0000041172288547 13.5900917053222656
  0.0002272038109368  2.2322254180908203 15.6491069793701172
  2.2152342796325684  0.0001953583123395 15.6331291198730469
  4.2013163566589355  1.8925461769104004 15.6367912292480469
  4.2011895179748535  6.5096154212951660 15.6367511749267578
  6.5110445022583008  4.2011957168579102 15.6437282562255859
  6.1872758865356445 -0.0002503107243683 15.6331624984741211
 -0.0002058614481939  6.1702876091003418 15.6491050720214844
  1.8916778564453125  4.2013120651245117 15.6436481475830078
 -0.0000063859060901  0.0000050415046644 17.4193630218505859
  2.1013443470001221  2.0998635292053223 17.7190532684326172
  2.1012856960296631  6.3027420043945312 17.7188034057617188
  4.2012376785278320 -0.0000015964765225 17.7812328338623047
  6.3011293411254883  6.3026642799377441 17.7190856933593750
  6.3012228012084961  2.0997447967529297 17.7188968658447266
  0.0000120996119222  4.2012548446655273 17.7954044342041016
  4.2012395858764648  4.2012519836425781 17.8941860198974609
  0.0001043591473717  6.1395406723022461 19.8424987792968750
 -0.0000918394143810  2.2629716396331787 19.8425197601318359
  2.2622499465942383 -0.0000915033087949 19.8404808044433594
  2.1003534793853760  4.2011971473693848 19.8532524108886719
  4.2011876106262207  2.0976090431213379 19.8514595031738281
  6.1402287483215332  0.0001106610288844 19.8404903411865234
  4.2012939453125000  6.3048858642578125 19.8514671325683594
  6.3021388053894043  4.2013053894042969 19.8532581329345703
  4.2012410163879395  4.2012562751770020 21.7960052490234375
  6.3017678260803223  2.1005380153656006 21.9548301696777344
  0.0000059657804741  4.2012553215026855 21.9494762420654297
  2.1006412506103516  2.1004490852355957 21.9547214508056641
  2.1007394790649414  6.3019609451293945 21.9547748565673828
  4.2012515068054199  0.0000042852789193 21.9532165527343750
  6.3018774986267090  6.3020582199096680 21.9547023773193359
  8.4025077819824219  0.0000047894295676 22.1106491088867188
 -0.0000029408777209  2.1034433841705322 24.0573158264160156
  2.1044516563415527 -0.0000141162136060 24.0574722290039062
  4.2012462615966797  1.9393411874771118 24.0681324005126953
  4.2012729644775391  6.4632024765014648 24.0681610107421875
  6.4602160453796387  4.2012743949890137 24.0679569244384766
  6.2980804443359375  0.0000084865332610 24.0574874877929688
  0.0000166369663930  6.2990703582763672 24.0573215484619141
  1.9423228502273560  4.2012319564819336 24.0679435729980469
 -0.0000052095551837 -0.0000103350848804 26.0181560516357422
  2.1008238792419434  2.1007547378540039 26.1912994384765625
  2.1008284091949463  6.3017549514770508 26.1912689208984375
  4.2012734413146973 -0.0000232749480347 26.1264705657958984
  6.3017086982727051  6.3017687797546387 26.1913166046142578
  6.3016982078552246  2.1007382869720459 26.1912860870361328
  0.0000052095551837  4.2012605667114258 26.1275024414062500
  4.2012553215026855  4.2012457847595215 26.4924774169921875
 -0.0000330218572344  6.0924491882324219 28.2713050842285156
  0.0000288206028927  2.3102426528930664 28.2712688446044922
  2.3104097843170166  0.0000233589726122 28.2711277008056641
  1.9797062873840332  4.2013440132141113 28.2704353332519531
  4.2013721466064453  1.9795227050781250 28.2707996368408203
  6.0924158096313477 -0.0000349544316123 28.2711696624755859
  4.2012100219726562  6.4229831695556641 28.2707862854003906
  6.4228324890136719  4.2011971473693848 28.2704353332519531
  4.2012524604797363  4.2012600898742676 30.3124427795410156
