Ni O 
 1.0000000000000000
     8.4025077819824219    0.0000000000000000    0.0000000000000000
     0.0000000000000000    8.4025077819824219    0.0000000000000000
     0.0000000000000000    0.0000000000000000   42.0125389099121094
 Ni  O  
  52  58
Cartesian
  6.2602438926696777  2.1424820423126221 15.6487932205200195
  0.0000000000000000  0.0000001680501640 15.5649232864379883
  2.1421740055084229  2.1423921585083008 15.6486463546752930
  2.1422638893127441  6.2600259780883789 15.6487932205200195
  4.2012543678283691  0.0000002520752389 15.6635379791259766
  6.2603340148925781  6.2601156234741211 15.6486473083496094
  0.0000000000000000  4.2012543678283691 15.6637439727783203
  4.2012543678283691  2.1265702247619629 17.7102832794189453
  2.1265923976898193  4.2012543678283691 17.7102394104003906
  4.2012534141540527  6.2759380340576172 17.7102832794189453
  6.2759156227111816  4.2012538909912109 17.7102394104003906
  2.0721225738525391  0.0000042852789193 17.7757530212402344
  6.3303856849670410 -0.0000043693039515 17.7757511138916016
 -0.0000044533294385  6.3303675651550293 17.7754230499267578
  0.0000044533294385  2.0721406936645508 17.7754230499267578
  0.0000000840250820  4.2012538909912109 19.8531341552734375
  2.0689680576324463  2.0689671039581299 19.8543968200683594
  4.2012538909912109  0.0000000000000000 19.8531188964843750
  2.0689666271209717  6.3335423469543457 19.8544025421142578
  4.2012538909912109  4.2012538909912109 19.8529472351074219
  6.3335399627685547  6.3335409164428711 19.8543949127197266
  6.3335413932800293  2.0689656734466553 19.8544025421142578
  0.0000001680501640  2.0686633586883545 21.9238834381103516
  2.0686602592468262  0.0000000840250820 21.9238872528076172
 -0.0000000840250820  6.3338446617126465 21.9238834381103516
  6.3338475227355957 -0.0000002520752389 21.9238872528076172
  6.2698302268981934  4.2012538909912109 21.9861030578613281
  2.1326775550842285  4.2012543678283691 21.9861011505126953
  4.2012538909912109  2.1327219009399414 21.9860954284667969
  4.2012543678283691  6.2697863578796387 21.9860954284667969
  6.2702159881591797  2.1322913169860840 24.0551223754882812
  0.0000000840250820 -0.0000000840250820 24.0569057464599609
  2.1322915554046631  2.1322913169860840 24.0551223754882812
  2.1322920322418213  6.2702164649963379 24.0551223754882812
  4.2012538909912109 -0.0000000840250820 24.0564231872558594
  6.2702164649963379  6.2702169418334961 24.0551223754882812
  0.0000001680501640  4.2012538909912109 24.0564785003662109
  4.2012538909912109  2.1292276382446289 26.1350231170654297
  2.1292498111724854  4.2012534141540527 26.1352481842041016
  4.2012543678283691  6.2732801437377930 26.1350231170654297
  6.2732582092285156  4.2012543678283691 26.1352481842041016
  2.0747256278991699  0.0000000000000000 26.2001247406005859
  6.3277821540832520  0.0000000000000000 26.2001247406005859
  0.0000000000000000  6.3277559280395508 26.2001399993896484
  0.0000000840250820  2.0747520923614502 26.2001399993896484
  0.0000001680501640  4.2012538909912109 28.2453613281250000
  2.0592114925384521  2.0593268871307373 28.2606945037841797
  4.2012538909912109 -0.0000001680501640 28.2454624176025391
  2.0592002868652344  6.3431921005249023 28.2606716156005859
  4.2012543678283691  4.2012538909912109 28.3502159118652344
  6.3432965278625488  6.3431806564331055 28.2606945037841797
  6.3433079719543457  2.0593161582946777 28.2606716156005859
 -0.0000004201253887 -0.0000003361003280 13.7411222457885742
 -0.0000284845027636  2.1277830600738525 15.6668167114257812
  2.1275908946990967 -0.0000278123006865 15.6657562255859375
  4.2012524604797363  1.9200716018676758 15.6559906005859375
  4.2012557983398438  6.4824361801147461 15.6559915542602539
  6.4824099540710449  4.2012548446655273 15.6561985015869141
  6.2749166488647461  0.0000278123006865 15.6657571792602539
  0.0000284845027636  6.2747249603271484 15.6668167114257812
  1.9200978279113770  4.2012529373168945 15.6561965942382812
  0.0000001680501640  0.0000000840250820 17.5934410095214844
  2.0998713970184326  2.0998811721801758 17.7496891021728516
  2.0998690128326416  6.3026289939880371 17.7496757507324219
  4.2012538909912109 -0.0000000840250820 17.7626895904541016
  6.3026366233825684  6.3026270866394043 17.7496891021728516
  6.3026390075683594  2.0998790264129639 17.7496776580810547
 -0.0000001680501640  4.2012538909912109 17.7627468109130859
  4.2012543678283691  4.2012538909912109 17.9154949188232422
 -0.0000003361003280  6.1432271003723145 19.8577709197998047
  0.0000001680501640  2.2592806816101074 19.8577728271484375
  2.2592949867248535  0.0000004201253887 19.8577594757080078
  2.1010315418243408  4.2012538909912109 19.8573780059814453
  4.2012543678283691  2.1010231971740723 19.8573703765869141
  6.1432127952575684 -0.0000000840250820 19.8577575683593750
  4.2012543678283691  6.3014845848083496 19.8573703765869141
  6.3014764785766602  4.2012538909912109 19.8573780059814453
  4.2012543678283691  4.2012538909912109 21.7974739074707031
  6.3018989562988281  2.1006062030792236 21.9549293518066406
 -0.0000000840250820  4.2012538909912109 21.9549903869628906
  2.1006093025207520  2.1006062030792236 21.9549312591552734
  2.1006093025207520  6.3019018173217773 21.9549293518066406
  4.2012538909912109  0.0000001680501640 21.9549732208251953
  6.3018989562988281  6.3019018173217773 21.9549312591552734
 -0.0000000840250820  0.0000001680501640 22.1125717163085938
 -0.0000002520752389  2.1002364158630371 24.0525779724121094
  2.1002454757690430  0.0000001680501640 24.0525817871093750
  4.2012538909912109  1.9417874813079834 24.0521602630615234
  4.2012538909912109  6.4607205390930176 24.0521621704101562
  6.4607386589050293  4.2012538909912109 24.0521373748779297
  6.3022627830505371  0.0000002520752389 24.0525817871093750
  0.0000000000000000  6.3022713661193848 24.0525779724121094
  1.9417692422866821  4.2012538909912109 24.0521354675292969
 -0.0000000840250820  0.0000000000000000 25.9944801330566406
  2.1013708114624023  2.1013472080230713 26.1602058410644531
  2.1013710498809814  6.3011608123779297 26.1602077484130859
  4.2012538909912109  0.0000000840250820 26.1472339630126953
  6.3011374473571777  6.3011608123779297 26.1602058410644531
  6.3011369705200195  2.1013472080230713 26.1602077484130859
 -0.0000000840250820  4.2012538909912109 26.1471519470214844
  4.2012538909912109  4.2012538909912109 26.3161563873291016
  0.0000005881755669  6.1213026046752930 28.2541980743408203
 -0.0000006722006560  2.2812056541442871 28.2541999816894531
  2.2811989784240723 -0.0000007562257451 28.2542018890380859
  2.0730631351470947  4.2012634277343750 28.2433853149414062
  4.2012634277343750  2.0733146667480469 28.2440376281738281
  6.1213092803955078  0.0000005881755669 28.2542018890380859
  4.2012448310852051  6.3291931152343750 28.2440376281738281
  6.3294448852539062  4.2012448310852051 28.2433853149414062
  4.2012538909912109  4.2012538909912109 30.1616001129150391
