Ni O 
 1.0000000000000000
     8.4025077819824219    0.0000000000000000    0.0000000000000000
     0.0000000000000000    8.4025077819824219    0.0000000000000000
     0.0000000000000000    0.0000000000000000   42.0125389099121094
 Ni  O  
  52  56
Cartesian
  6.2390437126159668  2.1634635925292969 15.7498998641967773
  0.0000000000000000 -0.0000005041504778 15.7090387344360352
  2.1634645462036133  2.1634635925292969 15.7499036788940430
  2.1634640693664551  6.2390432357788086 15.7498998641967773
  4.2012543678283691  0.0000007562257451 15.7837629318237305
  6.2390451431274414  6.2390441894531250 15.7498960494995117
  0.0000005881755669  4.2012543678283691 15.7837629318237305
  4.2012543678283691  2.1220459938049316 17.8260669708251953
  2.1220457553863525  4.2012543678283691 17.8260669708251953
  4.2012538909912109  6.2804608345031738 17.8260612487792969
  6.2804617881774902  4.2012538909912109 17.8260612487792969
  2.0625762939453125 -0.0000002520752389 17.8583812713623047
  6.3399305343627930 -0.0000007562257451 17.8583755493164062
 -0.0000006722006560  6.3399310111999512 17.8583755493164062
 -0.0000000840250820  2.0625762939453125 17.8583831787109375
 -0.0000004201253887  4.2012543678283691 19.9767436981201172
  2.0671491622924805  2.0671494007110596 19.9701290130615234
  4.2012543678283691 -0.0000004201253887 19.9767436981201172
  2.0671498775482178  6.3353586196899414 19.9701271057128906
  4.2012543678283691  4.2012543678283691 19.9769649505615234
  6.3353576660156250  6.3353576660156250 19.9701251983642578
  6.3353586196899414  2.0671501159667969 19.9701271057128906
 -0.0000006722006560  2.0706095695495605 22.0607528686523438
  2.0706088542938232 -0.0000005041504778 22.0607528686523438
 -0.0000005041504778  6.3318991661071777 22.0607509613037109
  6.3318996429443359 -0.0000003361003280 22.0607509613037109
  6.2718954086303711  4.2012548446655273 22.1199932098388672
  2.1306121349334717  4.2012543678283691 22.1199932098388672
  4.2012543678283691  2.1306128501892090 22.1199913024902344
  4.2012543678283691  6.2718949317932129 22.1199932098388672
  6.2683620452880859  2.1341452598571777 24.2107334136962891
 -0.0000005041504778 -0.0000004201253887 24.2038726806640625
  2.1341450214385986  2.1341452598571777 24.2107315063476562
  2.1341452598571777  6.2683625221252441 24.2107334136962891
  4.2012543678283691 -0.0000003361003280 24.2040939331054688
  6.2683629989624023  6.2683629989624023 24.2107372283935547
 -0.0000003361003280  4.2012543678283691 24.2040939331054688
  4.2012534141540527  2.1386415958404541 26.3225574493408203
  2.1386420726776123  4.2012538909912109 26.3225574493408203
  4.2012548446655273  6.2638678550720215 26.3225650787353516
  6.2638669013977051  4.2012553215026855 26.3225631713867188
  2.0792341232299805 -0.0000006722006560 26.3548965454101562
  6.3232746124267578  0.0000007562257451 26.3549041748046875
  0.0000005041504778  6.3232741355895996 26.3549041748046875
 -0.0000010083009556  2.0792348384857178 26.3548965454101562
 -0.0000004201253887  4.2012534141540527 28.3970546722412109
  2.0377638339996338  2.0377643108367920 28.4311313629150391
  4.2012534141540527  0.0000000840250820 28.3970546722412109
  2.0377647876739502  6.3647437095642090 28.4311351776123047
  4.2012538909912109  4.2012543678283691 28.4719104766845703
  6.3647422790527344  6.3647422790527344 28.4311389923095703
  6.3647432327270508  2.0377657413482666 28.4311351776123047
  0.0000005041504778  2.1191456317901611 15.7134571075439453
  2.1191458702087402 -0.0000005881755669 15.7134571075439453
  4.2012538909912109  1.9167474508285522 15.7620210647583008
  4.2012543678283691  6.4857568740844727 15.7620182037353516
  6.4857602119445801  4.2012538909912109 15.7620191574096680
  6.2833623886108398 -0.0000002520752389 15.7134437561035156
  0.0000007562257451  6.2833623886108398 15.7134428024291992
  1.9167503118515015  4.2012534141540527 15.7620210647583008
 -0.0000015124514903 -0.0000015124514903 17.6916751861572266
  2.0971474647521973  2.0971472263336182 17.8422431945800781
  2.0971474647521973  6.3053603172302246 17.8422393798828125
  4.2012543678283691 -0.0000009242758665 17.8888339996337891
  6.3053598403930664  6.3053603172302246 17.8422355651855469
  6.3053603172302246  2.0971469879150391 17.8422393798828125
 -0.0000005041504778  4.2012543678283691 17.8888339996337891
  4.2012543678283691  4.2012543678283691 18.0311336517333984
 -0.0000005041504778  6.1369328498840332 19.9748878479003906
 -0.0000004201253887  2.2655756473541260 19.9748935699462891
  2.2655754089355469 -0.0000005041504778 19.9748935699462891
  2.0966351032257080  4.2012543678283691 19.9791831970214844
  4.2012543678283691  2.0966348648071289 19.9791831970214844
  6.1369328498840332 -0.0000004201253887 19.9748878479003906
  4.2012543678283691  6.3058729171752930 19.9791851043701172
  6.3058724403381348  4.2012543678283691 19.9791851043701172
  4.2012538909912109  4.2012538909912109 21.9252414703369141
  6.3018732070922852  2.1006345748901367 22.0903720855712891
 -0.0000006722006560  4.2012548446655273 22.0903892517089844
  2.1006345748901367  2.1006343364715576 22.0903720855712891
  2.1006345748901367  6.3018736839294434 22.0903720855712891
  4.2012543678283691 -0.0000005041504778 22.0903892517089844
  6.3018732070922852  6.3018736839294434 22.0903720855712891
  0.0000000840250820  0.0000002520752389 22.2556953430175781
 -0.0000006722006560  2.1046559810638428 24.2016258239746094
  2.1046557426452637 -0.0000005881755669 24.2016258239746094
  4.2012543678283691  1.9356570243835449 24.2059288024902344
  4.2012543678283691  6.4668512344360352 24.2059345245361328
  6.4668512344360352  4.2012548446655273 24.2059345245361328
  6.2978525161743164  0.0000000000000000 24.2016258239746094
 -0.0000001680501640  6.2978520393371582 24.2016258239746094
  1.9356564283370972  4.2012543678283691 24.2059288024902344
 -0.0000002520752389 -0.0000001680501640 26.1498126983642578
  2.1041064262390137  2.1041064262390137 26.3387584686279297
  2.1041071414947510  6.2984018325805664 26.3387622833251953
  4.2012548446655273 -0.0000001680501640 26.2920627593994141
  6.2984018325805664  6.2984027862548828 26.3387660980224609
  6.2984013557434082  2.1041069030761719 26.3387622833251953
 -0.0000002520752389  4.2012548446655273 26.2920627593994141
  4.2012557983398438  4.2012557983398438 26.4892425537109375
 -0.0000000840250820  6.1180186271667480 28.4189395904541016
 -0.0000005041504778  2.2844901084899902 28.4189376831054688
  2.2844891548156738  0.0000000840250820 28.4189376831054688
  2.0820779800415039  4.2012538909912109 28.4676055908203125
  4.2012534141540527  2.0820782184600830 28.4676036834716797
  6.1180181503295898  0.0000004201253887 28.4189395904541016
  4.2012538909912109  6.3204302787780762 28.4676189422607422
  6.3204298019409180  4.2012538909912109 28.4676189422607422
