Ni O 
 1.0000000000000000
     8.1986503601074219    0.0000000000000000    1.0289880037307739
     4.0591487884521484    9.4208240509033203    0.8346049785614014
     0.0000000000000000    0.0000000000000000   33.1766052246093750
 Ni  O  
  36  42
Cartesian
  5.6061220169067383  5.9244170188903809 21.6859073638916016
  1.4110618829727173  3.0118193626403809 21.9315795898437500
  9.8097791671752930  8.7771959304809570 21.3701801300048828
  7.4599132537841797  7.6736564636230469 22.7801971435546875
  3.6775946617126465  4.1017541885375977 20.3997020721435547
  7.6616244316101074  1.1649097204208374 21.6833820343017578
  3.5388607978820801  7.6736631393432617 22.2880687713623047
  7.7930169105529785  4.1018133163452148 20.9161815643310547
  3.6148350238800049  1.1648951768875122 21.1755733489990234
  5.9556250572204590  5.1246819496154785 18.9005184173583984
  1.7546999454498291  2.2245495319366455 19.1943626403808594
 10.1568937301635742  7.9877581596374512 18.6034755706787109
  7.8676624298095703  6.9197802543640137 20.1150894165039062
  4.0321993827819824  3.2774653434753418 17.6542892456054688
  8.0131883621215820  0.3840664625167847 18.9692478179931641
  3.8025262355804443  6.9197764396667480 19.6049289703369141
  8.1275520324707031  3.2774457931518555 18.1682872772216797
  3.9448256492614746  0.3840228319168091 18.4586906433105469
  6.3028359413146973  4.2974963188171387 16.1343784332275391
  2.1038959026336670  1.4270759820938110 16.4131336212158203
 10.5025644302368164  7.1885361671447754 15.8501176834106445
  8.2327756881713867  6.1499767303466797 17.3783321380615234
  4.3943495750427246  2.5027711391448975 14.9213151931762695
  4.2337918281555176  9.0253133773803711 16.0647869110107422
  4.1252174377441406  6.1499900817871094 16.8628082275390625
  8.4521265029907227  2.5027980804443359 15.4305553436279297
  8.3249092102050781  9.0253009796142578 16.5782623291015625
  6.6516776084899902  3.4966244697570801 13.3543968200683594
  2.4484381675720215  0.6341524124145508 13.6669445037841797
 10.8447084426879883  6.4118719100952148 13.1240100860595703
  8.5884418487548828  5.3291325569152832 14.6422519683837891
  4.8048257827758789  1.7493668794631958 12.2656822204589844
  4.5856781005859375  8.2492685317993164 13.3601922988891602
  4.4564862251281738  5.3291254043579102 14.1236476898193359
  8.7106018066406250  1.7493340969085693 12.7559537887573242
  8.6522836685180664  8.2492637634277344 13.8704805374145508
  5.4765100479125977  7.4584093093872070 22.7185878753662109
  9.8245887756347656  3.8393936157226562 21.2497043609619141
  5.6184287071228027  0.9069014787673950 21.5873794555664062
  5.7399549484252930  4.2693524360656738 20.6190986633300781
  1.5326001644134521  1.3660411834716797 20.9654788970947266
  7.4893016815185547  5.8975787162780762 21.9132633209228516
 11.6694374084472656  8.7742300033569336 21.6666011810302734
  7.9340448379516602  8.7741460800170898 21.1977329254150391
  3.7250950336456299  5.8975505828857422 21.4408092498779297
  5.8365015983581543  6.7048516273498535 19.8497982025146484
  1.9728579521179199  3.0259332656860352 17.4575691223144531
  5.9768390655517578  0.1721035689115524 18.7316932678222656
  9.9419326782226562  7.1811132431030273 20.3156471252441406
  6.0875320434570312  3.5178723335266113 17.8498306274414062
  1.8855658769607544  0.6495071053504944 18.1537494659423828
  7.8167681694030762  5.0873160362243652 19.1389312744140625
  3.6181573867797852  2.2251291275024414 19.4696121215820312
  3.8205835819244385  7.9868950843811035 17.8044815063476562
  8.0800228118896484  2.2251243591308594 20.0296058654785156
  8.2953414916992188  7.9869065284729004 18.3660774230957031
  4.0935058593750000  5.0872745513916016 18.6715583801269531
  6.1697850227355957  5.9006071090698242 17.1942844390869141
  2.3145229816436768  2.2407963275909424 14.7357997894287109
 10.3708400726318359  8.7822055816650391 16.8981628417968750
 10.2824878692626953  6.3825306892395020 17.6022758483886719
  6.4212527275085449  2.7162642478942871 15.1907138824462891
  6.2798128128051758  9.2624769210815430 16.3177890777587891
  8.1634216308593750  4.3244543075561523 16.3738803863525391
  3.9572918415069580  1.4396272897720337 16.6798458099365234
  4.1907949447631836  7.1971273422241211 15.0102653503417969
  8.4408035278320312  1.4396286010742188 17.2425422668457031
  8.6271209716796875  7.1971211433410645 15.5670385360717773
  4.4407343864440918  4.3244547843933105 15.9066667556762695
  6.5176553726196289  5.1463809013366699 14.4226074218750000
 10.7286796569824219  8.0670709609985352 14.0471086502075195
  2.4345726966857910  5.5690083503723145 13.7789335250854492
  6.7813205718994141  1.9639596939086914 12.3215036392211914
  6.6393499374389648  8.5222663879394531 13.4529018402099609
  8.5335617065429688  3.5161573886871338 13.5967273712158203
  4.3194708824157715  0.6546121835708618 13.8390312194824219
  0.5932259559631348  0.6545638442039490 13.3714160919189453
  4.7682962417602539  3.5161211490631104 13.1241378784179688
