Ni O 
 1.0000000000000000
     8.1986503601074219    0.0000000000000000    1.0289880037307739
     4.0591487884521484    9.4208240509033203    0.8346049785614014
     0.0000000000000000    0.0000000000000000   33.1766052246093750
 Ni  O  
  36  42
Cartesian
  5.6060709953308105  5.7853107452392578 21.6839027404785156
  1.4182341098785400  2.7827827930450439 21.8659820556640625
  9.8039636611938477  8.8163156509399414 21.4123840332031250
  7.1493134498596191  7.6631088256835938 22.6584548950195312
  3.6079540252685547  4.1524090766906738 20.3893203735351562
  7.6400976181030273  1.1630333662033081 21.7806129455566406
  3.8716065883636475  7.6636781692504883 22.2469520568847656
  7.8616089820861816  4.1520199775695801 20.9235382080078125
  3.6120812892913818  1.1630530357360840 21.2749729156494141
  5.9561910629272461  5.0961046218872070 18.8954448699951172
  1.7504308223724365  2.2426993846893311 19.2291507720947266
 10.1561784744262695  7.9976258277893066 18.6086597442626953
  7.8691782951354980  6.9264016151428223 20.1044292449951172
  4.0036458969116211  3.2673738002777100 17.6630039215087891
  8.0034761428833008  0.4209360778331757 18.9880390167236328
  3.8033010959625244  6.9261050224304199 19.5941429138183594
  8.1521692276000977  3.2673046588897705 18.1841812133789062
  3.9501488208770752  0.4215021729469299 18.4788722991943359
  6.3015451431274414  4.3252320289611816 16.1448364257812500
  2.1022067070007324  1.4235800504684448 16.4313507080078125
 10.5074748992919922  7.1776347160339355 15.8110265731811523
  8.2540082931518555  6.1537437438964844 17.3773651123046875
  4.3885931968688965  2.4947044849395752 14.9357194900512695
  4.2543754577636719  9.0003671646118164 16.0522251129150391
  4.1056356430053711  6.1538910865783691 16.8562030792236328
  8.4545373916625977  2.4950342178344727 15.4459447860717773
  8.3075885772705078  8.9999237060546875 16.5613460540771484
  6.6517486572265625  3.6356265544891357 13.3561725616455078
  2.4539210796356201  0.6047574281692505 13.6277093887329102
 10.8395309448242188  6.6364307403564453 13.1742124557495117
  8.6494455337524414  5.2676577568054199 14.6505956649780273
  5.1083731651306152  1.7574315071105957 12.3811635971069336
  4.6178650856018066  8.2578372955322266 13.2599744796752930
  4.3966145515441895  5.2680535316467285 14.1164608001708984
  8.3863611221313477  1.7568312883377075 12.7927207946777344
  8.6456375122070312  8.2578897476196289 13.7655076980590820
  5.4320168495178223  7.0895662307739258 23.0751724243164062
  9.8106765747070312  3.8388023376464844 21.3586521148681641
  5.5958604812622070  0.8141527175903320 21.7650852203369141
  5.7418942451477051  4.2528109550476074 20.5999622344970703
  1.4589104652404785  0.9945839047431946 21.5508708953857422
  7.4726171493530273  5.8737516403198242 21.9317131042480469
 11.6724061965942383  8.7601661682128906 21.7725181579589844
  7.9045486450195312  8.7602710723876953 21.2994689941406250
  3.7361807823181152  5.8739814758300781 21.4628753662109375
  5.8350267410278320  6.7023115158081055 19.8592166900634766
  1.9842118024826050  3.0522847175598145 17.3644390106201172
  5.9757065773010254  0.2036237567663193 18.7415580749511719
  9.9369640350341797  7.2426509857177734 20.3540191650390625
  6.0874352455139160  3.5164873600006104 17.8492298126220703
  1.8834919929504395  0.6642137169837952 18.1689300537109375
  7.8161344528198242  5.0917620658874512 19.1263542175292969
  3.6056449413299561  2.2245879173278809 19.5731735229492188
  3.8150601387023926  7.9984078407287598 17.8146152496337891
  8.0661401748657227  2.2243626117706299 20.1326255798339844
  8.2984590530395508  7.9984197616577148 18.3773670196533203
  4.0966415405273438  5.0917754173278809 18.6591644287109375
  6.1703872680664062  5.9044332504272461 17.1907806396484375
  2.3208091259002686  2.1783504486083984 14.6860570907592773
 10.3742513656616211  8.7568149566650391 16.8711547851562500
 10.2734880447387695  6.3689613342285156 17.6757946014404297
  6.4228053092956543  2.7186155319213867 15.1810064315795898
  6.2820553779602051  9.2173395156860352 16.2985248565673828
  8.1610641479492188  4.3293595314025879 16.3807659149169922
  3.9594399929046631  1.4224470853805542 16.6625442504882812
  4.1917767524719238  7.1965336799621582 14.9079275131225586
  8.4423837661743164  1.4224534034729004 17.2252216339111328
  8.6518526077270508  7.1963505744934082 15.4673185348510742
  4.4418292045593262  4.3293771743774414 15.9135999679565430
  6.5159578323364258  5.1676278114318848 14.4398221969604492
 10.7987632751464844  8.4249076843261719 13.4907636642456055
  2.4470567703247070  5.5819144248962402 13.6819868087768555
  6.8258190155029297  2.3302145004272461 11.9646711349487305
  6.6619071960449219  8.6066389083862305 13.2756595611572266
  8.5219268798828125  3.5476768016815186 13.5773677825927734
  4.3532390594482422  0.6603610515594482 13.7408876419067383
  0.5853690505027771  0.6604658961296082 13.2678594589233398
  4.7848405838012695  3.5479261875152588 13.1084585189819336
