Ni O 
 1.0000000000000000
     8.1986503601074219    0.0000000000000000    1.0289880037307739
     4.0591487884521484    9.4208240509033203    0.8346049785614014
     0.0000000000000000    0.0000000000000000   33.1766052246093750
 Ni  O  
  36  44
Cartesian
  5.6069326400756836  5.9263315200805664 21.6839733123779297
  1.4114028215408325  3.0175318717956543 21.9325199127197266
  9.8053789138793945  8.7763214111328125 21.4074478149414062
  7.5343208312988281  7.6694426536560059 22.8165779113769531
  3.6852352619171143  4.1117687225341797 20.4038524627685547
  7.6473717689514160  1.1537200212478638 21.6787872314453125
  3.4583015441894531  7.6697063446044922 22.3049716949462891
  7.7849898338317871  4.1113686561584473 20.9185886383056641
  3.6306474208831787  1.1533552408218384 21.1743488311767578
  5.9555025100708008  5.1235542297363281 18.9048995971679688
  1.7570971250534058  2.2327091693878174 19.1750793457031250
 10.1560668945312500  7.9736390113830566 18.6117362976074219
  7.8722481727600098  6.9220499992370605 20.1258563995361328
  4.0380516052246094  3.2782924175262451 17.6555976867675781
  8.0232810974121094  0.3815695643424988 18.9770030975341797
  3.7958931922912598  6.9222755432128906 19.6143035888671875
  8.1220254898071289  3.2782943248748779 18.1683597564697266
  3.9337463378906250  0.3813168108463287 18.4635467529296875
  6.3034234046936035  4.2979531288146973 16.1338520050048828
  2.1033062934875488  1.4324858188629150 16.4191989898681641
 10.4965467453002930  7.2134437561035156 15.8884601593017578
  8.2305860519409180  6.1476087570190430 17.3834495544433594
  4.3879575729370117  2.4957838058471680 14.9130086898803711
  4.2347702980041504  9.0348377227783203 16.0589504241943359
  4.1265087127685547  6.1476106643676758 16.8688354492187500
  8.4608449935913086  2.4961440563201904 15.4242639541625977
  8.3259925842285156  9.0344886779785156 16.5720176696777344
  6.6526184082031250  3.4954910278320312 13.3524112701416016
  2.4542984962463379  0.6424840688705444 13.6239957809448242
 10.8307876586914062  6.3946218490600586 13.0754337310791016
  8.5594682693481445  5.3078846931457520 14.6444358825683594
  4.7214999198913574  1.7500501871109009 12.2240562438964844
  4.6218304634094238  8.2767076492309570 13.3700819015502930
  4.4850268363952637  5.3063054084777832 14.1347761154174805
  8.8021888732910156  1.7504372596740723 12.7361106872558594
  8.6159429550170898  8.2749862670898438 13.8705625534057617
  5.4775466918945312  7.4574427604675293 22.7115879058837891
  9.8256034851074219  3.8355383872985840 21.2530269622802734
  5.6175513267517090  1.0036300420761108 21.5858268737792969
  9.5936660766601562  7.9394769668579102 23.0930862426757812
  5.7403931617736816  4.2665123939514160 20.6129188537597656
  1.5359908342361450  1.3809537887573242 20.9496574401855469
  7.4774503707885742  5.8831481933593750 21.8976573944091797
 11.7240228652954102  8.7944078445434570 21.6362743377685547
  7.8890171051025391  8.7948627471923828 21.1550197601318359
  3.7406084537506104  5.8821845054626465 21.4287357330322266
  5.8365998268127441  6.7011952400207520 19.8507003784179688
  1.9684073925018311  3.0181007385253906 17.4958667755126953
  5.9734835624694824  0.1644693166017532 18.7600212097167969
  9.9491434097290039  7.1302638053894043 20.2600879669189453
  6.0878467559814453  3.5171694755554199 17.8483142852783203
  1.8850573301315308  0.6476538777351379 18.1596317291259766
  7.8176617622375488  5.0887064933776855 19.1347389221191406
  3.6087419986724854  2.2278728485107422 19.4709300994873047
  3.8207292556762695  7.9850487709045410 17.7995719909667969
  8.0899667739868164  2.2277472019195557 20.0323390960693359
  8.2969636917114258  7.9852271080017090 18.3616409301757812
  4.0937004089355469  5.0883946418762207 18.6675109863281250
  6.1700754165649414  5.9020004272460938 17.1927585601806641
  2.3089420795440674  2.2899756431579590 14.7820253372192383
 10.3730669021606445  8.7726039886474609 16.8838062286376953
 10.2835025787353516  6.3840456008911133 17.5982818603515625
  6.4211821556091309  2.7194848060607910 15.1927423477172852
  6.2823905944824219  9.2620334625244141 16.2983283996582031
  8.1654453277587891  4.3290958404541016 16.3733921051025391
  3.9591698646545410  1.4383841753005981 16.6802062988281250
  4.2058334350585938  7.1958332061767578 15.0037002563476562
  8.4394626617431641  1.4381564855575562 17.2422752380371094
  8.6157999038696289  7.1960144042968750 15.5588293075561523
  4.4389858245849609  4.3296175003051758 15.9051761627197266
  6.5161728858947754  5.1518588066101074 14.4278831481933594
  2.6657612323760986  1.4905751943588257 11.9399280548095703
 10.7280874252319336  8.0326852798461914 14.0575637817382812
  2.4368333816528320  5.5884799957275391 13.7662658691406250
  6.7802596092224121  1.9652744531631470 12.3317470550537109
  6.6374630928039551  8.4180870056152344 13.4577064514160156
  8.5172653198242188  3.5378394126892090 13.6110773086547852
  4.3906035423278809  0.6252046227455139 13.8862543106079102
  0.5128122568130493  0.6241595745086670 13.3992681503295898
  4.7806000709533691  3.5389692783355713 13.1422472000122070
