Ni O 
 1.0000000000000000
     8.1986503601074219    0.0000000000000000    1.0289880037307739
     4.0591487884521484    9.4208240509033203    0.8346049785614014
     0.0000000000000000    0.0000000000000000   33.1766052246093750
 Ni  O  
  36  44
Cartesian
  5.6130847930908203  5.8991265296936035 21.6327991485595703
  1.4176324605941772  3.0700025558471680 21.8712844848632812
  9.7859916687011719  8.7284364700317383 21.5635356903076172
  7.5376091003417969  7.5281624794006348 22.8508167266845703
  3.6298241615295410  4.1870045661926270 20.3617191314697266
  7.5771188735961914  1.1846324205398560 21.6365909576416016
  3.4455950260162354  7.5277714729309082 22.3375473022460938
  7.8476982116699219  4.1858682632446289 20.8912792205810547
  3.7094187736511230  1.1850445270538330 21.1512050628662109
  5.9586286544799805  5.1208891868591309 18.8730182647705078
  1.7488062381744385  2.2431099414825439 19.2534217834472656
 10.1602048873901367  7.9927420616149902 18.5841560363769531
  7.8638691902160645  6.9712119102478027 20.1134300231933594
  4.0319399833679199  3.2606337070465088 17.6763248443603516
  8.0162134170532227  0.3695590496063232 19.0242500305175781
  3.8083403110504150  6.9718399047851562 19.6042861938476562
  8.1233663558959961  3.2607934474945068 18.1894760131835938
  3.9302399158477783  0.3695532977581024 18.5115394592285156
  6.2981410026550293  4.3000626564025879 16.1677207946777344
  2.0991389751434326  1.4281163215637207 16.4576911926269531
 10.5109148025512695  7.1786208152770996 15.7863492965698242
  8.2265214920043945  6.1603937149047852 17.3647499084472656
  4.3944945335388184  2.4486927986145020 14.9273328781127930
  4.2427325248718262  9.0519752502441406 16.0165252685546875
  4.1350255012512207  6.1602754592895508 16.8508872985839844
  8.4510631561279297  2.4494764804840088 15.4361162185668945
  8.3284044265747070  9.0518722534179688 16.5292472839355469
  6.6454153060913086  3.5214574337005615 13.4071063995361328
  2.4725561141967773  0.6933158636093140 13.4757003784179688
 10.8179035186767578  6.3507733345031738 13.1635961532592773
  8.6271619796752930  5.2350726127624512 14.6784505844116211
  4.7224216461181641  1.8912134170532227 12.1897268295288086
  4.6799955368041992  8.2363624572753906 13.4032354354858398
  4.4090671539306641  5.2328982353210449 14.1493139266967773
  8.8122062683105469  1.8932341337203979 12.7025384902954102
  8.5480537414550781  8.2332220077514648 13.8882913589477539
  5.4565076828002930  7.2573037147521973 22.8804130554199219
  9.8306493759155273  3.9115867614746094 21.2022552490234375
  5.6159100532531738  1.0531246662139893 21.6122207641601562
  9.5884027481079102  7.7112898826599121 23.1344127655029297
  5.7453207969665527  4.3036499023437500 20.5768241882324219
  1.5292719602584839  1.3928599357604980 20.9977092742919922
  7.4673266410827637  5.8595170974731445 21.8625869750976562
 11.7711715698242188  8.7611551284790039 21.7584609985351562
  7.8142695426940918  8.7612228393554688 21.2618522644042969
  3.7596521377563477  5.8600101470947266 21.3972969055175781
  5.8461451530456543  6.7403950691223145 19.7778377532958984
  1.9637480974197388  3.0097615718841553 17.5333290100097656
  5.9688138961791992  0.1228990778326988 18.8029994964599609
  9.9527416229248047  7.1415309906005859 20.2361927032470703
  6.0848979949951172  3.5118901729583740 17.8749465942382812
  1.8782688379287720  0.6515046358108521 18.2159347534179688
  7.8173341751098633  5.1196455955505371 19.0992622375488281
  3.5974733829498291  2.2795474529266357 19.5021476745605469
  3.8201665878295898  8.0021047592163086 17.7804203033447266
  8.0927219390869141  2.2790935039520264 20.0659847259521484
  8.3030986785888672  8.0020446777343750 18.3435821533203125
  4.1033444404602051  5.1200413703918457 18.6330089569091797
  6.1736207008361816  5.9085493087768555 17.1657028198242188
  2.3061940670013428  2.2785208225250244 14.8042850494384766
 10.3806200027465820  8.7694683074951172 16.8250179290771484
 10.2947120666503906  6.4112262725830078 17.5074558258056641
  6.4127535820007324  2.6804742813110352 15.2619743347167969
  6.2897295951843262  9.2975530624389648 16.2386684417724609
  8.1548881530761719  4.3009290695190430 16.4075717926025391
  3.9558145999908447  1.4187051057815552 16.6977615356445312
  4.1648821830749512  7.1418910026550293 14.9736461639404297
  8.4382953643798828  1.4190568923950195 17.2603702545166016
  8.6606788635253906  7.1431198120117188 15.5401620864868164
  4.4410862922668457  4.3005161285400391 15.9418134689331055
  6.5120558738708496  5.1172995567321777 14.4637804031372070
  2.6704041957855225  1.7098996639251709 11.9040317535400391
 10.7297420501708984  8.0260324478149414 14.0431461334228516
  2.4269907474517822  5.5107183456420898 13.8371000289916992
  6.8023509979248047  2.1635494232177734 12.1601524353027344
  6.6415882110595703  8.3682518005371094 13.4265136718750000
  8.4986772537231445  3.5621280670166016 13.6423044204711914
  4.4443120956420898  0.6583734154701233 13.7770690917968750
  0.4871454536914825  0.6605492830276489 13.2809743881225586
  4.7913827896118164  3.5605516433715820 13.1775197982788086
