Zn O 
 1.0000000000000000
    10.0590839385986328    0.0000000000000000   -1.6445510387420654
     7.2593908309936523    4.5082221031188965   -1.6445510387420654
     0.0000000000000000    0.0000000000000000   36.1801261901855469
 Zn  O  
  24  22
Cartesian
  3.2424569129943848  1.9786957502365112 13.5902614593505859
  0.3428818285465240  0.2982966005802155 12.4478960037231445
  5.7055039405822754  3.4783170223236084 11.9291038513183594
  5.5512552261352539  0.4824262857437134 12.3586187362670898
 10.3097057342529297  3.2317142486572266 11.9790353775024414
  7.8281464576721191  2.3184835910797119 10.8297233581542969
  3.2529418468475342  1.9973847866058350 16.9860630035400391
  0.8640913963317871  0.4944401085376740 15.3602952957153320
  5.6409029960632324  3.4707179069519043 15.2988462448120117
  5.4295721054077148  0.2379518449306488 15.3805589675903320
 10.3055725097656250  3.2459948062896729 15.3574800491333008
  7.9321155548095703  1.7558946609497070 13.7411270141601562
  3.1886432170867920  1.9336956739425659 20.2462940216064453
  0.8008287549018860  0.4668886959552765 18.6298999786376953
  5.6591839790344238  3.5035881996154785 18.6065807342529297
  5.4672060012817383  0.2394472658634186 18.6883220672607422
 10.2524995803833008  3.2014763355255127 18.6271743774414062
  7.8466205596923828  1.7264499664306641 17.0013504028320312
 12.7899761199951172  2.2758469581604004 21.5132770538330078
  0.8118109107017517  0.4566071629524231 22.0084056854248047
 15.4451847076416016  3.5027933120727539 19.9843368530273438
  5.4318151473999023  0.1845860332250595 22.0580749511718750
 10.6599111557006836  3.5815360546112061 21.5396404266357422
  7.8680558204650879  1.7272598743438721 20.3971595764160156
 12.2513303756713867  3.6948950290679932 12.0437011718750000
  9.7118425369262695  2.0413279533386230 10.5204524993896484
  7.4477229118347168  0.6997022032737732 12.0081338882446289
  4.4598736763000488  1.9965550899505615 12.0531787872314453
  1.9728690385818481  0.4348988831043243 13.6654281616210938
 12.2559442520141602  3.7115132808685303 15.3759050369262695
  9.8659086227416992  2.2124495506286621 13.7029390335083008
  7.3874607086181641  0.6880957484245300 15.3322963714599609
  4.3555030822753906  1.9337195158004761 15.3189992904663086
  1.9829467535018921  0.4465988576412201 17.0103092193603516
  6.8341088294982910  3.4546971321105957 13.6951217651367188
 12.2118082046508789  3.6711106300354004 18.6475219726562500
  9.7996311187744141  2.1775083541870117 16.9771900177001953
  7.4148178100585938  0.7098239660263062 18.6683902740478516
  4.3873567581176758  1.9484293460845947 18.6551742553710938
  1.9221988916397095  0.4027921855449677 20.2845592498779297
  6.7784390449523926  3.4331240653991699 16.9667110443115234
  9.8147087097167969  2.1811854839324951 20.3220691680908203
  7.3123574256896973  0.6440517306327820 21.9342098236083984
  4.3502864837646484  1.8993153572082520 21.9794387817382812
  2.1438109874725342  0.4643893837928772 23.4670238494873047
  6.7953581809997559  3.4295597076416016 20.2989826202392578
