Zn O 
 1.0000000000000000
     8.0972909927368164    0.0000000000000000   -0.5697230100631714
    -3.4473609924316406    7.3267879486083984    0.5697230100631714
     0.0000000000000000    0.0000000000000000   33.0439567565917969
 Zn  O  
  36  36
Cartesian
  5.5348496437072754  1.6262482404708862 20.2159461975097656
 -0.2374765872955322  5.2896423339843750 20.7856693267822266
  8.0057792663574219  0.0580783486366272 21.0389728546142578
  2.2334527969360352  3.7214725017547607 21.6086959838867188
  3.1587870121002197  3.1342105865478516 18.8277645111083984
 -2.6135392189025879  6.7976045608520508 19.3974857330322266
  2.6580958366394043  0.8825095891952515 20.7718982696533203
  4.9830608367919922  4.5459036827087402 20.7718982696533203
  1.8941833972930908  6.5062532424926758 22.4518089294433594
 -0.4307813942432404  2.8428590297698975 22.4518089294433594
  2.6502380371093750  6.0264244079589844 19.6442756652832031
  0.3252730071544647  2.3630306720733643 19.6442756652832031
 -1.6417133808135986  6.1808381080627441 16.6112670898437500
  4.1306128501892090  2.5174438953399658 16.0415439605712891
  6.5091094970703125  1.0079360008239746 17.1627159118652344
  0.7367833852767944  4.6713299751281738 17.7324390411376953
  1.7334944009780884  4.0387697219848633 14.8597297668457031
  7.5058202743530273  0.3753755390644073 14.2900066375732422
  1.2809436321258545  1.7565158605575562 16.8125038146972656
  3.6059083938598633  5.4199099540710449 16.8125038146972656
  3.6780619621276855  0.2351898998022079 17.9943180084228516
  6.0030269622802734  3.8985841274261475 17.9943180084228516
  1.2274116277694702  6.9294176101684570 15.6913328170776367
 -1.0975534915924072  3.2660236358642578 15.6913337707519531
  2.7534606456756592  3.3914499282836914 12.0821495056152344
 -3.0188655853271484  7.0548439025878906 12.6518726348876953
 -0.6860429644584656  5.5743231773376465 13.7794961929321289
  5.0862832069396973  1.9109289646148682 13.2097730636596680
  5.8423371315002441  1.4311007261276245 10.4022388458251953
  0.0700116083025932  5.0944943428039551 10.9719619750976562
  2.2016716003417969  6.3111057281494141 12.6381015777587891
 -0.1232934072613716  2.6477115154266357 12.6381015777587891
  2.2527692317962646  1.1397490501403809 14.0262851715087891
  4.5777339935302734  4.8031430244445801 14.0262851715087891
  3.1781032085418701  0.5524871349334717 11.2453527450561523
  5.5030684471130371  4.2158813476562500 11.2453527450561523
  6.5059404373168945  1.0099474191665649 21.9838218688964844
  0.7336140871047974  4.6733417510986328 22.5535449981689453
  7.1896972656250000  0.5760022401809692 19.0951671600341797
  1.4173715114593506  4.2393960952758789 19.6648902893066406
 -1.9607645273208618  6.3833227157592773 21.3760871887207031
  3.8115618228912354  2.7199289798736572 20.8063640594482422
  2.0039482116699219  1.2976624965667725 18.7694778442382812
  4.3289132118225098  4.9610567092895508 18.7694778442382812
  0.8714212179183960  7.1553463935852051 20.7888412475585938
 -1.4535437822341919  3.4919524192810059 20.7888412475585938
  3.4207434654235840  5.5374245643615723 21.5836009979248047
  1.0957784652709961  1.8740304708480835 21.5836009979248047
  4.8452196121215820  2.0639197826385498 18.0117874145507812
 -0.9271060824394226  5.7273139953613281 18.5815105438232422
  0.0786823928356171  5.0889925956726074 15.6769046783447266
  5.8510084152221680  1.4255983829498291 15.1071815490722656
 -3.3469297885894775  7.2630496025085449 17.4300842285156250
  2.4253959655761719  3.5996553897857666 16.8603610992431641
  2.8913016319274902  5.8734335899353027 14.8422603607177734
  0.5663368105888367  2.2100398540496826 14.8422603607177734
  2.9861600399017334  0.6743043661117554 15.9936876296997070
  5.3111248016357422  4.3376984596252441 15.9936876296997070
  1.8855128288269043  6.5117549896240234 17.7468662261962891
 -0.4394521415233612  2.8483612537384033 17.7468662261962891
 -2.3647179603576660  6.6396913528442383 14.6542940139770508
  3.4076080322265625  2.9762969017028809 14.0845708847045898
 -1.4565480947494507  6.0633230209350586 11.8401708602905273
  4.3157777786254883  2.3999292850494385 11.2704467773437500
  6.8650999069213867  0.7820073366165161 12.0652074813842773
  1.0927741527557373  4.4454011917114258 12.6349296569824219
  1.2305808067321777  6.9274063110351562 10.8702259063720703
 -1.0943844318389893  3.2640120983123779 10.8702259063720703
  1.5999944210052490  1.5540304183959961 12.0476837158203125
  3.9249598979949951  5.2174248695373535 12.0476837158203125
  3.9941844940185547  0.0345634631812572 13.1891584396362305
  6.3191494941711426  3.6979575157165527 13.1891584396362305
