Zn O 
 1.0000000000000000
    10.0590839385986328    0.0000000000000000   -1.6445510387420654
     7.2593908309936523    4.5082221031188965   -1.6445510387420654
     0.0000000000000000    0.0000000000000000   36.1801261901855469
 Zn  O  
  24  22
Cartesian
  3.2219808101654053  1.9691925048828125 13.6295690536499023
 10.3913078308105469  0.7717013359069824 10.8614921569824219
  5.6212849617004395  3.4080467224121094 11.9197292327880859
  5.5428190231323242  0.4690202772617340 12.3388280868530273
 10.2499208450317383  3.2060573101043701 11.9717130661010742
  8.2635030746459961  2.1010849475860596 10.7907075881958008
  3.2519426345825195  1.9999090433120728 17.0061874389648438
  0.8209439516067505  0.4566809833049774 15.3828182220458984
  5.6316146850585938  3.4635820388793945 15.2982950210571289
  5.4000654220581055  0.2235219776630402 15.3744096755981445
 10.2988157272338867  3.2457437515258789 15.3586959838867188
  7.8902106285095215  1.7398936748504639 13.7340383529663086
  3.2217917442321777  1.9638800621032715 20.2533378601074219
  0.8040878176689148  0.4727668762207031 18.6287746429443359
  5.6846513748168945  3.5236852169036865 18.6131534576416016
  5.4777679443359375  0.2444524317979813 18.6892299652099609
 10.3058824539184570  3.2232799530029297 18.6045284271240234
  7.8445591926574707  1.7285410165786743 16.9810943603515625
  2.7327694892883301  1.7894276380538940 23.1965656280517578
  0.8612927794456482  0.4990068972110748 22.0155868530273438
 15.4609813690185547  3.5046551227569580 20.0039958953857422
  5.5324687957763672  0.2292156815528870 22.0680675506591797
 10.2399187088012695  3.8009881973266602 21.4809474945068359
  7.8853192329406738  1.7418345212936401 20.3579177856445312
 12.1900434494018555  3.6789991855621338 12.0354127883911133
  7.4402871131896973  0.6756899356842041 12.0212039947509766
  4.3773856163024902  1.9287716150283813 12.0611429214477539
  1.9444867372512817  0.4268484115600586 13.6791629791259766
  6.9989442825317383  3.4807686805725098 10.5072393417358398
 12.2460508346557617  3.7087867259979248 15.3844289779663086
  9.8384027481079102  2.1990213394165039 13.7156009674072266
  7.3611764907836914  0.6716638803482056 15.3341817855834961
  4.3418354988098145  1.9307116270065308 15.3339509963989258
  1.9775885343551636  0.4473346471786499 17.0057697296142578
  6.7992181777954102  3.4294347763061523 13.6812047958374023
 12.2502231597900391  3.6909759044647217 18.6617298126220703
  9.8012256622314453  2.1825001239776611 16.9815578460693359
  7.4235210418701172  0.7210436463356018 18.6534366607666016
  4.4136648178100586  1.9644836187362671 18.6530933380126953
  1.9465811252593994  0.4212547242641449 20.2716999053955078
  6.7849798202514648  3.4408833980560303 16.9585762023925781
 12.1153011322021484  3.5344326496124268 21.8354244232177734
  9.8340635299682617  2.2030334472656250 20.3080291748046875
  7.4097957611083984  0.6882504820823669 21.9265251159667969
  4.3752260208129883  1.8955320119857788 21.9662513732910156
  6.8366537094116211  3.4778692722320557 20.3074131011962891
