Zn O 
 1.0000000000000000
    10.0590839385986328    0.0000000000000000   -1.6445510387420654
     7.2593908309936523    4.5082221031188965   -1.6445510387420654
     0.0000000000000000    0.0000000000000000   36.1801261901855469
 Zn  O  
  24  23
Cartesian
  3.2788410186767578  2.0539822578430176 13.6355266571044922
 10.4506740570068359  0.8777534365653992 10.8710708618164062
  5.6739487648010254  3.5149593353271484 11.9179401397705078
  5.5946869850158691  0.5682215094566345 12.3610429763793945
 10.3066549301147461  3.2883422374725342 11.9839200973510742
  8.3131008148193359  2.2076129913330078 10.8004779815673828
  3.3026838302612305  1.9916441440582275 17.0036888122558594
  0.8801983594894409  0.5104143619537354 15.3827114105224609
  5.7021594047546387  3.4923651218414307 15.2927970886230469
  5.4692325592041016  0.2597831785678864 15.3921585083007812
 10.3495893478393555  3.2494344711303711 15.3814706802368164
  7.9515171051025391  1.8063844442367554 13.7430915832519531
  3.2588412761688232  1.9064422845840454 20.2807159423828125
  0.8640777468681335  0.4461520016193390 18.6474437713623047
  5.7034783363342285  3.4471063613891602 18.5846385955810547
  5.5142188072204590  0.1896515190601349 18.7127647399902344
 10.3555469512939453  3.1781771183013916 18.6376972198486328
  7.9057421684265137  1.7034853696823120 17.0001525878906250
  3.0165452957153320  1.8953150510787964 23.3490905761718750
  0.8474717736244202  0.3817408978939056 21.9784584045410156
  5.4850564002990723  3.4537472724914551 21.6376628875732422
  5.5997433662414551  0.1906973421573639 22.0745563507080078
 10.4558801651000977  3.3678479194641113 21.6808719635009766
  7.9231543540954590  1.6625630855560303 20.3395576477050781
 12.2453422546386719  3.7560596466064453 12.0339212417602539
  7.4897856712341309  0.7748408913612366 12.0207490921020508
  4.4381070137023926  2.0333166122436523 12.0766315460205078
  2.0039591789245605  0.5095412731170654 13.6881656646728516
  7.0562410354614258  3.5884923934936523 10.5090007781982422
 12.2994985580444336  3.7044532299041748 15.3779258728027344
  9.9011621475219727  2.2500538825988770 13.7135400772094727
  7.4310255050659180  0.6983187794685364 15.3223972320556641
  4.4065628051757812  1.9648196697235107 15.3409738540649414
  2.0235867500305176  0.4465680122375488 17.0138664245605469
  6.8607072830200195  3.4897093772888184 13.6758613586425781
 12.3022232055664062  3.6390666961669922 18.6977367401123047
  9.8639831542968750  2.1596183776855469 16.9921989440917969
  7.4624352455139160  0.6507542729377747 18.6370105743408203
  4.4354338645935059  1.8968676328659058 18.6675376892089844
  2.0007922649383545  0.3632090985774994 20.2991199493408203
  6.8446607589721680  3.4150919914245605 16.9598884582519531
 12.3205690383911133  3.6008617877960205 21.9736137390136719
  9.8782491683959961  2.1024119853973389 20.2853927612304688
  7.4815297126770020  0.6222198605537415 21.9202499389648438
  4.4479856491088867  1.8432354927062988 21.9737834930419922
  6.8454599380493164  3.3504047393798828 20.2549610137939453
  2.0040035247802734  0.3060938119888306 23.5697040557861328
