Zn O 
 1.0000000000000000
    10.0590839385986328    0.0000000000000000   -1.6445510387420654
     7.2593908309936523    4.5082221031188965   -1.6445510387420654
     0.0000000000000000    0.0000000000000000   36.1801261901855469
 Zn  O  
  24  23
Cartesian
 13.2839422225952148  2.0061228275299072 12.0600471496582031
 10.8641481399536133  0.5033835768699646 10.4154977798461914
 15.7037439346313477  3.5088663101196289 10.4154958724975586
  5.4313106536865234  0.2529293000698090 12.0600471496582031
 10.2708997726440430  3.2584075927734375 12.0600471496582031
  7.8511052131652832  1.7556684017181396 10.4154977798461914
 13.2839422225952148  2.0061228275299072 15.3491458892822266
 10.8641481399536133  0.5033835768699646 13.7045965194702148
 15.7037439346313477  3.5088663101196289 13.7045946121215820
  5.4313106536865234  0.2529293000698090 15.3491458892822266
 10.2708997726440430  3.2584075927734375 15.3491458892822266
  7.8511052131652832  1.7556684017181396 13.7045965194702148
 13.2839422225952148  2.0061228275299072 18.6382446289062500
 10.8641481399536133  0.5033835768699646 16.9936962127685547
 15.7037439346313477  3.5088663101196289 16.9936943054199219
  5.4313106536865234  0.2529293000698090 18.6382446289062500
 10.2708997726440430  3.2584075927734375 18.6382446289062500
  7.8511052131652832  1.7556684017181396 16.9936962127685547
 13.2839422225952148  2.0061228275299072 21.9273452758789062
 10.8641481399536133  0.5033835768699646 20.2827949523925781
 15.7037439346313477  3.5088663101196289 20.2827930450439453
  5.4313106536865234  0.2529293000698090 21.9273452758789062
 10.2708997726440430  3.2584075927734375 21.9273452758789062
  7.8511052131652832  1.7556684017181396 20.2827949523925781
 12.2222595214843750  3.7157037258148193 12.0600471496582031
  7.3826704025268555  0.7102252840995789 12.0600471496582031
  4.3696274757385254  1.9625102281570435 12.0600471496582031
  1.9498258829116821  0.4597665071487427 13.7045984268188477
  6.7894225120544434  3.4652493000030518 10.4154977798461914
 12.2222595214843750  3.7157037258148193 15.3491458892822266
  9.8024654388427734  2.2129645347595215 13.7045965194702148
  7.3826704025268555  0.7102252840995789 15.3491458892822266
  4.3696274757385254  1.9625102281570435 15.3491458892822266
  1.9498258829116821  0.4597665071487427 16.9936962127685547
  6.7894225120544434  3.4652493000030518 13.7045965194702148
 12.2222595214843750  3.7157037258148193 18.6382446289062500
  9.8024654388427734  2.2129645347595215 16.9936962127685547
  7.3826704025268555  0.7102252840995789 18.6382446289062500
  4.3696274757385254  1.9625102281570435 18.6382446289062500
  1.9498258829116821  0.4597665071487427 20.2827968597412109
  6.7894225120544434  3.4652493000030518 16.9936962127685547
 12.2222595214843750  3.7157037258148193 21.9273452758789062
  9.8024654388427734  2.2129645347595215 20.2827949523925781
  7.3826704025268555  0.7102252840995789 21.9273452758789062
  4.3696274757385254  1.9625102281570435 21.9273452758789062
  6.7894225120544434  3.4652493000030518 20.2827949523925781
  4.9628767967224121  0.2353742718696594 24.2064743041992188
