Ni O 
 1.0000000000000000
     8.1986503601074219    0.0000000000000000    1.0289880037307739
     4.0591487884521484    9.4208240509033203    0.8346049785614014
     0.0000000000000000    0.0000000000000000   33.1766052246093750
 Ni  O  
  36  43
Cartesian
  5.6057686805725098  5.8879485130310059 21.6706638336181641
  1.3326290845870972  3.0126237869262695 21.9976215362548828
  9.8171987533569336  8.8013477325439453 21.3709106445312500
  7.5557188987731934  7.6603159904479980 22.7593441009521484
  3.6901352405548096  4.1040740013122559 20.3915061950683594
  7.6521592140197754  1.2508769035339355 21.7436809539794922
  3.4473414421081543  7.6816215515136719 22.2660675048828125
  7.7745590209960938  4.0495247840881348 20.9806022644042969
  3.6237018108367920  1.1651248931884766 21.1702899932861328
  5.9529933929443359  5.1126203536987305 18.9155273437500000
  1.7469021081924438  2.2259175777435303 19.1903953552246094
 10.1542911529541016  7.9981851577758789 18.6153793334960938
  7.8680162429809570  6.9129872322082520 20.1134548187255859
  4.0350522994995117  3.2766606807708740 17.6599674224853516
  8.0161085128784180  0.3949563503265381 18.9780769348144531
  3.7996313571929932  6.9220209121704102 19.6126060485839844
  8.1233663558959961  3.2739491462707520 18.1772060394287109
  3.9417691230773926  0.3901553153991699 18.4568386077880859
  6.3040575981140137  4.3067564964294434 16.1250000000000000
  2.1012504100799561  1.4247419834136963 16.4276218414306641
 10.4948558807373047  7.1915087699890137 15.8573188781738281
  8.2247438430786133  6.1494107246398926 17.3769855499267578
  4.3888993263244629  2.4999458789825439 14.9181289672851562
  4.2387371063232422  9.0308170318603516 16.0676937103271484
  4.1333508491516113  6.1462516784667969 16.8688030242919922
  8.4561271667480469  2.5045723915100098 15.4294157028198242
  8.3205537796020508  9.0224943161010742 16.5762710571289062
  6.6635251045227051  3.5352666378021240 13.3880939483642578
  2.4422628879547119  0.6210594177246094 13.6681022644042969
 10.7744560241699219  6.3910059928894043 13.1104822158813477
  8.5811872482299805  5.3716011047363281 14.5735521316528320
  4.7065882682800293  1.7313311100006104 12.2410726547241211
  4.6074542999267578  8.2660541534423828 13.3816804885864258
  4.4742813110351562  5.3163862228393555 14.1407442092895508
  8.8081159591674805  1.7596869468688965 12.7893800735473633
  8.6424627304077148  8.1754636764526367 13.8123645782470703
  1.6752474308013916  3.8233702182769775 20.2135162353515625
  5.5913195610046387  0.8774932026863098 21.5625743865966797
  5.7295618057250977  4.2399439811706543 20.5718860626220703
  1.5998822450637817  1.3538732528686523 20.8786926269531250
  7.5082011222839355  5.9820060729980469 21.9361972808837891
 11.6883916854858398  8.7518033981323242 21.6709423065185547
  7.7410383224487305  2.9882307052612305 22.6822795867919922
  7.9119858741760254  8.7580146789550781 21.2051792144775391
  3.6973519325256348  5.9401426315307617 21.4573516845703125
  5.8341913223266602  6.7249932289123535 19.8577365875244141
  1.9705234766006470  3.0231645107269287 17.4891986846923828
  5.9744591712951660  0.1646512299776077 18.7294578552246094
  9.9436140060424805  7.1712684631347656 20.3098449707031250
  6.0862469673156738  3.5201745033264160 17.8529434204101562
  1.8872500658035278  0.6477040052413940 18.1525363922119141
  7.8188796043395996  5.0986647605895996 19.1304149627685547
  3.6144001483917236  2.2260956764221191 19.4672298431396484
  3.8220400810241699  7.9851922988891602 17.7999153137207031
  8.1007547378540039  2.2191781997680664 19.9897441864013672
  8.2956256866455078  7.9863934516906738 18.3652153015136719
  4.0909366607666016  5.0927696228027344 18.6674079895019531
  6.1695780754089355  5.9030895233154297 17.1865005493164062
  2.3174676895141602  2.2448062896728516 14.7316789627075195
 10.3737239837646484  8.7773313522338867 16.8835849761962891
 10.2908334732055664  6.3951101303100586 17.5467243194580078
  6.4209160804748535  2.6965467929840088 15.1759452819824219
  6.2815351486206055  9.2607564926147461 16.3075447082519531
  8.1634626388549805  4.3226776123046875 16.3759040832519531
  3.9593658447265625  1.4391100406646729 16.6764545440673828
  4.1762094497680664  7.1965794563293457 15.0083971023559570
  8.4407701492309570  1.4376616477966309 17.2365226745605469
  8.6512165069580078  7.2063431739807129 15.6106424331665039
  4.4368715286254883  4.3280568122863770 15.9024801254272461
  6.4954328536987305  5.1780338287353516 14.4556713104248047
 10.7811918258666992  8.0690774917602539 14.1399726867675781
  2.4827780723571777  5.5830883979797363 13.8228454589843750
  6.5998997688293457  8.5453634262084961 13.4701995849609375
  8.5352535247802734  3.4456710815429688 13.5847883224487305
  4.3381185531616211  0.6621916294097900 13.8529319763183594
  0.5730569958686829  0.6523583531379700 13.3718557357788086
  8.9774532318115234  6.4350409507751465 12.8774862289428711
  4.7534008026123047  3.4899833202362061 13.1073341369628906
  1.2255452871322632  2.2197191715240479 23.6071567535400391
