Ni O 
 1.0000000000000000
     8.1986503601074219    0.0000000000000000    1.0289880037307739
     4.0591487884521484    9.4208240509033203    0.8346049785614014
     0.0000000000000000    0.0000000000000000   33.1766052246093750
 Ni  O  
  36  42
Cartesian
  5.6202740669250488  5.8819651603698730 21.6774768829345703
  1.4832366704940796  3.0335559844970703 21.9455776214599609
  9.7914800643920898  8.8030958175659180 21.3715248107910156
  7.5428185462951660  7.6912655830383301 22.8194503784179688
  3.6805374622344971  4.0481319427490234 20.4740524291992188
  7.6462101936340332  1.1557908058166504 21.6715316772460938
  3.4517376422882080  7.6690411567687988 22.2553405761718750
  7.7777566909790039  4.1135525703430176 20.9069194793701172
  3.6167855262756348  1.2354185581207275 21.2399063110351562
  5.9560642242431641  5.1134290695190430 18.9169483184814453
  1.7629646062850952  2.2338778972625732 19.1855964660644531
 10.1526021957397461  7.9980635643005371 18.6154193878173828
  7.8648428916931152  6.9237599372863770 20.1316890716552734
  4.0346617698669434  3.2721719741821289 17.6647186279296875
  8.0166482925415039  0.3918680250644684 18.9693775177001953
  3.8061821460723877  6.9123868942260742 19.6067657470703125
  8.1206922531127930  3.2811713218688965 18.1672058105468750
  3.9392693042755127  0.3923279643058777 18.4715099334716797
  6.2997779846191406  4.3049597740173340 16.1218986511230469
  2.1064608097076416  1.4226504564285278 16.4217548370361328
 10.4963636398315430  7.1879110336303711 15.8532457351684570
  8.2229747772216797  6.1478934288024902 17.3740959167480469
  4.3905706405639648  2.4962470531463623 14.9152173995971680
  4.2426896095275879  9.0315914154052734 16.0650596618652344
  4.1375074386596680  6.1395254135131836 16.8710327148437500
  8.4543743133544922  2.5063862800598145 15.4210290908813477
  8.3173875808715820  9.0265636444091797 16.5701217651367188
  6.6505017280578613  3.5397737026214600 13.3670730590820312
  2.4522502422332764  0.6187742948532104 13.6649885177612305
 10.7722969055175781  6.3866105079650879 13.0920209884643555
  8.5789394378662109  5.3663892745971680 14.5632534027099609
  4.7065558433532715  1.7492951154708862 12.2750883102416992
  4.6133232116699219  8.2758951187133789 13.3692474365234375
  4.4790887832641602  5.3123531341552734 14.1355466842651367
  8.8112287521362305  1.7280013561248779 12.7308750152587891
  8.6410036087036133  8.1807699203491211 13.7990455627441406
  9.7705116271972656  3.8347856998443604 21.2118778228759766
  5.6581735610961914  0.8748257160186768 21.5784015655517578
  5.7606711387634277  4.2370696067810059 20.5732498168945312
  1.4729008674621582  1.3497482538223267 20.9027614593505859
  7.5077009201049805  5.8963437080383301 21.9291954040527344
  3.2766532897949219  2.9803113937377930 22.1736106872558594
 11.6910200119018555  8.7600002288818359 21.6749706268310547
  7.9349355697631836  8.7791337966918945 21.1621894836425781
  3.6936395168304443  5.9753184318542480 21.4619598388671875
  5.8334293365478516  6.7256407737731934 19.8567085266113281
  1.9666393995285034  3.0194058418273926 17.4929008483886719
  5.9860572814941406  0.1586050391197205 18.7259063720703125
  9.9451169967651367  7.1759142875671387 20.3074722290039062
  6.0889091491699219  3.5205914974212646 17.8531665802001953
  1.8816308975219727  0.6466453671455383 18.1536521911621094
  7.8180575370788574  5.0904493331909180 19.1347999572753906
  3.6040117740631104  2.2207579612731934 19.4276466369628906
  3.8181600570678711  7.9861311912536621 17.8035907745361328
  8.0838012695312500  2.2190008163452148 20.0316104888916016
  8.3019046783447266  7.9860053062438965 18.3644294738769531
  4.0942716598510742  5.1018958091735840 18.6635608673095703
  6.1691646575927734  5.9007458686828613 17.1887912750244141
  2.3130602836608887  2.2451758384704590 14.7349596023559570
 10.3749103546142578  8.7736797332763672 16.8880195617675781
 10.2906665802001953  6.4021592140197754 17.5478878021240234
  6.4226398468017578  2.6948530673980713 15.1835956573486328
  6.2754621505737305  9.2623529434204102 16.3162117004394531
  8.1630020141601562  4.3200206756591797 16.3788242340087891
  3.9563748836517334  1.4349690675735474 16.6741733551025391
  4.1722102165222168  7.1988620758056641 15.0094175338745117
  8.4390830993652344  1.4330255985260010 17.2417259216308594
  8.6533184051513672  7.2036304473876953 15.6138296127319336
  4.4394712448120117  4.3303937911987305 15.9059085845947266
  6.4933137893676758  5.1852617263793945 14.4625597000122070
 10.7855958938598633  8.0714311599731445 14.1381406784057617
  2.4878761768341064  5.5852594375610352 13.8294725418090820
  6.5983157157897949  8.5451850891113281 13.4593420028686523
  8.5535659790039062  3.4723346233367920 13.5907506942749023
  4.3302354812622070  0.6571212410926819 13.8599834442138672
  0.5684995651245117  0.6382218003273010 13.3905601501464844
  8.9835844039916992  6.4469628334045410 12.8647003173828125
  4.7575535774230957  3.4994444847106934 13.1036434173583984
