Ni O 
 1.0000000000000000
     8.1986503601074219    0.0000000000000000    1.0289880037307739
     4.0591487884521484    9.4208240509033203    0.8346049785614014
     0.0000000000000000    0.0000000000000000   33.1766052246093750
 Ni  O  
  36  42
Cartesian
  5.6617059707641602  5.8207702636718750 21.6997337341308594
  1.7434641122817993  2.8788826465606689 21.9691829681396484
  9.8192300796508789  8.7446508407592773 21.3074188232421875
  8.0426731109619141  7.3738751411437988 22.5539531707763672
  3.7456617355346680  4.0505151748657227 20.5879688262939453
  7.6112389564514160  1.0572332143783569 21.6230030059814453
  2.6079037189483643  7.2629742622375488 21.9068870544433594
  7.8676557540893555  4.1826162338256836 20.9449901580810547
  3.9349565505981445  1.2999458312988281 21.3308963775634766
  5.9989438056945801  5.1058020591735840 18.9257011413574219
  1.7224152088165283  2.1963510513305664 19.2710971832275391
 10.1806945800781250  8.0347681045532227 18.5310707092285156
  7.8596167564392090  7.0135283470153809 19.9670372009277344
  4.0404334068298340  3.2794861793518066 17.7580051422119141
  8.0141468048095703  0.4235507249832153 18.9517459869384766
  3.8919398784637451  6.9249577522277832 19.5917797088623047
  8.1534795761108398  3.3114554882049561 18.1839733123779297
  3.9501771926879883  0.4315864145755768 18.4785633087158203
  6.2983245849609375  4.3721885681152344 16.1701889038085938
  2.1168084144592285  1.4490498304367065 16.4694499969482422
 10.5702800750732422  7.2735681533813477 15.7463140487670898
  8.2474260330200195  6.2047538757324219 17.2771053314208984
  4.3710641860961914  2.5421192646026611 14.9967641830444336
  4.2841110229492188  9.0514068603515625 16.0738124847412109
  4.1489567756652832  6.1694293022155762 16.8843078613281250
  8.4682073593139648  2.5584433078765869 15.4445543289184570
  8.3582429885864258  9.0750789642333984 16.4908046722412109
  6.5866341590881348  3.6673526763916016 13.4189968109130859
  2.4265830516815186  0.7216139435768127 13.6408224105834961
 10.5303640365600586  6.5848960876464844 13.0519599914550781
  8.5451087951660156  5.3423657417297363 14.4617805480957031
  5.0731315612792969  1.8619323968887329 12.5697441101074219
  4.7666640281677246  8.2379322052001953 13.4105768203735352
  4.3981394767761230  5.2683362960815430 14.1614456176757812
  7.8160443305969238  1.5460394620895386 13.0540103912353516
  8.2889814376831055  8.0687732696533203 13.6807851791381836
  9.7969121932983398  3.8046114444732666 21.2982711791992188
  5.7233171463012695  0.6548137664794922 21.7727603912353516
  5.8405504226684570  4.2003474235534668 20.5758609771728516
  1.3310559988021851  1.3113678693771362 20.9463386535644531
  7.5252079963684082  5.6583151817321777 22.3154716491699219
  3.5469169616699219  2.9226534366607666 22.2966041564941406
 11.6522350311279297  8.6045999526977539 21.7199668884277344
  7.9477291107177734  8.7787637710571289 21.2643756866455078
  3.7197089195251465  5.8900833129882812 21.5349655151367188
  5.8963980674743652  6.7119374275207520 19.9154930114746094
  1.9831075668334961  3.0177040100097656 17.5601234436035156
  6.0040416717529297  0.2121361345052719 18.6780834197998047
  9.9218444824218750  7.1985330581665039 20.2043952941894531
  6.1200213432312012  3.5448658466339111 17.8700370788574219
  1.8741825819015503  0.6402978897094727 18.1822795867919922
  7.8648476600646973  5.1445651054382324 19.1258544921875000
  3.5979685783386230  2.1837651729583740 19.5159778594970703
  3.8326616287231445  8.0044937133789062 17.7966613769531250
  8.0675821304321289  2.2419831752777100 20.0431861877441406
  8.3265619277954102  8.0529756546020508 18.2897357940673828
  4.1305942535400391  5.0998020172119141 18.7306022644042969
  6.1823148727416992  5.9456844329833984 17.2254600524902344
  2.3404064178466797  2.2604405879974365 14.7541933059692383
 10.4298105239868164  8.8300399780273438 16.8128776550292969
 10.3083696365356445  6.4651370048522949 17.4439983367919922
  6.3825364112854004  2.7599527835845947 15.2218275070190430
  6.3112506866455078  9.2817831039428711 16.3091926574707031
  8.1723194122314453  4.3804049491882324 16.3294658660888672
  3.9730131626129150  1.4572818279266357 16.6874847412109375
  4.2151594161987305  7.1771016120910645 15.0050334930419922
  8.4664154052734375  1.4772913455963135 17.2464771270751953
  8.7002830505371094  7.2673506736755371 15.4932165145874023
  4.4275498390197754  4.3468756675720215 15.9718732833862305
  6.4525446891784668  5.2915654182434082 14.5151042938232422
 11.0346479415893555  8.1694030761718750 14.0119800567626953
  2.4902684688568115  5.6570134162902832 13.7182760238647461
  6.5646748542785645  8.7877864837646484 13.2115077972412109
  8.4764051437377930  3.2824547290802002 13.4686098098754883
  4.3385033607482910  0.5996287465095520 13.7393636703491211
  0.5283819437026978  0.6454380750656128 13.4483537673950195
  8.7255783081054688  6.4419679641723633 12.7475204467773438
  4.6888747215270996  3.6206884384155273 12.9824657440185547
