Ni O 
 1.0000000000000000
     8.4025077819824219    0.0000000000000000    0.0000000000000000
     0.0000000000000000    8.4025077819824219    0.0000000000000000
     0.0000000000000000    0.0000000000000000   42.0125389099121094
 Ni  O  
  52  56
Cartesian
  6.2675819396972656  2.1349260807037354 15.7885646820068359
  0.0000000000000000  0.0000000000000000 15.7885646820068359
  2.1349260807037354  2.1349260807037354 15.7885646820068359
  2.1349260807037354  6.2675819396972656 15.7885646820068359
  4.2012538909912109  0.0000000000000000 15.7885646820068359
  6.2675819396972656  6.2675819396972656 15.7885646820068359
  0.0000000000000000  4.2012538909912109 15.7885646820068359
  4.2012538909912109  2.1349260807037354 17.8549098968505859
  2.1349260807037354  4.2012538909912109 17.8549098968505859
  4.2012538909912109  6.2675819396972656 17.8549098968505859
  6.2675819396972656  4.2012538909912109 17.8549098968505859
  2.0663280487060547  0.0000000000000000 17.9235153198242188
  6.3361802101135254  0.0000000000000000 17.9235153198242188
  0.0000000000000000  6.3361802101135254 17.9235153198242188
  0.0000000000000000  2.0663280487060547 17.9235153198242188
  0.0000000000000000  4.2012538909912109 19.9898185729980469
  2.0663280487060547  2.0663280487060547 19.9898185729980469
  4.2012538909912109  0.0000000000000000 19.9898185729980469
  2.0663280487060547  6.3361802101135254 19.9898185729980469
  4.2012538909912109  4.2012538909912109 19.9898185729980469
  6.3361802101135254  6.3361802101135254 19.9898185729980469
  6.3361802101135254  2.0663280487060547 19.9898185729980469
  0.0000000000000000  2.0663280487060547 22.0561637878417969
  2.0663280487060547  0.0000000000000000 22.0561637878417969
  0.0000000000000000  6.3361802101135254 22.0561637878417969
  6.3361802101135254  0.0000000000000000 22.0561637878417969
  6.2675819396972656  4.2012538909912109 22.1247692108154297
  2.1349260807037354  4.2012538909912109 22.1247692108154297
  4.2012538909912109  2.1349260807037354 22.1247692108154297
  4.2012538909912109  6.2675819396972656 22.1247692108154297
  6.2675819396972656  2.1349260807037354 24.1910724639892578
  0.0000000000000000  0.0000000000000000 24.1910724639892578
  2.1349260807037354  2.1349260807037354 24.1910724639892578
  2.1349260807037354  6.2675819396972656 24.1910724639892578
  4.2012538909912109  0.0000000000000000 24.1910724639892578
  6.2675819396972656  6.2675819396972656 24.1910724639892578
  0.0000000000000000  4.2012538909912109 24.1910724639892578
  4.2012538909912109  2.1349260807037354 26.2574176788330078
  2.1349260807037354  4.2012538909912109 26.2574176788330078
  4.2012538909912109  6.2675819396972656 26.2574176788330078
  6.2675819396972656  4.2012538909912109 26.2574176788330078
  2.0663280487060547  0.0000000000000000 26.3260231018066406
  6.3361802101135254  0.0000000000000000 26.3260231018066406
  0.0000000000000000  6.3361802101135254 26.3260231018066406
  0.0000000000000000  2.0663280487060547 26.3260231018066406
  0.0000000000000000  4.2012538909912109 28.3923263549804688
  2.0663280487060547  2.0663280487060547 28.3923263549804688
  4.2012538909912109  0.0000000000000000 28.3923263549804688
  2.0663280487060547  6.3361802101135254 28.3923263549804688
  4.2012538909912109  4.2012538909912109 28.3923263549804688
  6.3361802101135254  6.3361802101135254 28.3923263549804688
  6.3361802101135254  2.0663280487060547 28.3923263549804688
  0.0000000000000000  2.1006269454956055 15.7885646820068359
  2.1006269454956055  0.0000000000000000 15.7885646820068359
  4.2012538909912109  1.9396433830261230 15.7885646820068359
  4.2012538909912109  6.4628648757934570 15.7885646820068359
  6.4628648757934570  4.2012538909912109 15.7885646820068359
  6.3018808364868164  0.0000000000000000 15.7885646820068359
  0.0000000000000000  6.3018808364868164 15.7885646820068359
  1.9396433830261230  4.2012538909912109 15.7885646820068359
  0.0000000000000000  0.0000000000000000 17.7282409667968750
  2.1006269454956055  2.1006269454956055 17.8891906738281250
  2.1006269454956055  6.3018808364868164 17.8891906738281250
  4.2012538909912109  0.0000000000000000 17.8891906738281250
  6.3018808364868164  6.3018808364868164 17.8891906738281250
  6.3018808364868164  2.1006269454956055 17.8891906738281250
  0.0000000000000000  4.2012538909912109 17.8891906738281250
  4.2012538909912109  4.2012538909912109 18.0501842498779297
  0.0000000000000000  6.1408972740173340 19.9898185729980469
  0.0000000000000000  2.2616107463836670 19.9898185729980469
  2.2616107463836670  0.0000000000000000 19.9898185729980469
  2.1006269454956055  4.2012538909912109 19.9898185729980469
  4.2012538909912109  2.1006269454956055 19.9898185729980469
  6.1408972740173340  0.0000000000000000 19.9898185729980469
  4.2012538909912109  6.3018808364868164 19.9898185729980469
  6.3018808364868164  4.2012538909912109 19.9898185729980469
  4.2012538909912109  4.2012538909912109 21.9294948577880859
  6.3018808364868164  2.1006269454956055 22.0904464721679688
  0.0000000000000000  4.2012538909912109 22.0904464721679688
  2.1006269454956055  2.1006269454956055 22.0904464721679688
  2.1006269454956055  6.3018808364868164 22.0904464721679688
  4.2012538909912109  0.0000000000000000 22.0904464721679688
  6.3018808364868164  6.3018808364868164 22.0904464721679688
  0.0000000000000000  0.0000000000000000 22.2514381408691406
  0.0000000000000000  2.1006269454956055 24.1910724639892578
  2.1006269454956055  0.0000000000000000 24.1910724639892578
  4.2012538909912109  1.9396433830261230 24.1910724639892578
  4.2012538909912109  6.4628648757934570 24.1910724639892578
  6.4628648757934570  4.2012538909912109 24.1910724639892578
  6.3018808364868164  0.0000000000000000 24.1910724639892578
  0.0000000000000000  6.3018808364868164 24.1910724639892578
  1.9396433830261230  4.2012538909912109 24.1910724639892578
  0.0000000000000000  0.0000000000000000 26.1307487487792969
  2.1006269454956055  2.1006269454956055 26.2917003631591797
  2.1006269454956055  6.3018808364868164 26.2917003631591797
  4.2012538909912109  0.0000000000000000 26.2917003631591797
  6.3018808364868164  6.3018808364868164 26.2917003631591797
  6.3018808364868164  2.1006269454956055 26.2917003631591797
  0.0000000000000000  4.2012538909912109 26.2917003631591797
  4.2012538909912109  4.2012538909912109 26.4526920318603516
  0.0000000000000000  6.1408972740173340 28.3923263549804688
  0.0000000000000000  2.2616107463836670 28.3923263549804688
  2.2616107463836670  0.0000000000000000 28.3923263549804688
  2.1006269454956055  4.2012538909912109 28.3923263549804688
  4.2012538909912109  2.1006269454956055 28.3923263549804688
  6.1408972740173340  0.0000000000000000 28.3923263549804688
  4.2012538909912109  6.3018808364868164 28.3923263549804688
  6.3018808364868164  4.2012538909912109 28.3923263549804688
