Ni O 
 1.0000000000000000
     8.4025077819824219    0.0000000000000000    0.0000000000000000
     0.0000000000000000    8.4025077819824219    0.0000000000000000
     0.0000000000000000    0.0000000000000000   42.0125389099121094
 Ni  O  
  52  56
Cartesian
  6.2384138107299805  2.1640875339508057 15.7609071731567383
  8.4024896621704102  8.4024953842163086 15.7309141159057617
  2.1641201972961426  2.1641058921813965 15.7609052658081055
  2.1641237735748291  6.2383966445922852 15.7609262466430664
  4.2012438774108887 -0.0000213423700188 15.7955484390258789
  6.2384104728698730  6.2384157180786133 15.7608966827392578
  0.0000124357120512  4.2012572288513184 15.7955598831176758
  4.2012505531311035  2.1221842765808105 17.8350601196289062
  2.1221823692321777  4.2012429237365723 17.8350563049316406
  4.2012538909912109  6.2803215980529785 17.8350315093994141
  6.2803082466125488  4.2012472152709961 17.8350296020507812
  2.0631275177001953  8.4025049209594727 17.8716297149658203
  6.3394021987915039  8.4025039672851562 17.8716087341308594
  8.4025030136108398  6.3394088745117188 17.8715991973876953
  8.4025039672851562  2.0631139278411865 17.8716087341308594
 -0.0000092427590062  4.2012772560119629 19.9837226867675781
  2.0677056312561035  2.0677149295806885 19.9756278991699219
  4.2012734413146973 -0.0000094108090707 19.9837150573730469
  2.0677051544189453  6.3347892761230469 19.9756259918212891
  4.2012410163879395  4.2012619972229004 19.9787044525146484
  6.3347959518432617  6.3347926139831543 19.9756145477294922
  6.3347949981689453  2.0677139759063721 19.9756259918212891
  0.0000010923259879  2.0694119930267334 22.0610923767089844
  2.0693938732147217 -0.0000000840250820 22.0610733032226562
  8.4025058746337891  6.3331098556518555 22.0610656738281250
  6.3331060409545898  8.4025058746337891 22.0610790252685547
  6.2706623077392578  4.2012586593627930 22.1197357177734375
  2.1318566799163818  4.2012543678283691 22.1197528839111328
  4.2012548446655273  2.1318333148956299 22.1197204589843750
  4.2012572288513184  6.2706604003906250 22.1197395324707031
  6.2689499855041504  2.1335568428039551 24.2052516937255859
  0.0000008402507774 -0.0000021006269435 24.2021541595458984
  2.1335840225219727  2.1335568428039551 24.2052612304687500
  2.1335511207580566  6.2689480781555176 24.2052402496337891
  4.2012538909912109 -0.0000175612422026 24.1970710754394531
  6.2689414024353027  6.2689371109008789 24.2052497863769531
 -0.0000142002381835  4.2012510299682617 24.1970729827880859
  4.2012481689453125  2.1381299495697021 26.3093605041503906
  2.1381344795227051  4.2012786865234375 26.3093471527099609
  4.2012372016906738  6.2643833160400391 26.3093090057373047
  6.2643818855285645  4.2012681961059570 26.3093147277832031
  2.0791096687316895  0.0000153765904543 26.3458652496337891
  6.3233785629272461 -0.0000072261568675 26.3458995819091797
 -0.0000146203637996  6.3233904838562012 26.3458843231201172
  0.0000061338309933  2.0791044235229492 26.3458442687988281
 -0.0000016805015548  4.2012467384338379 28.3853454589843750
  2.0371205806732178  2.0371294021606445 28.4200592041015625
  4.2012543678283691 -0.0000025207523322 28.3853778839111328
  2.0371303558349609  6.3653831481933594 28.4200267791748047
  4.2012701034545898  4.2012600898742676 28.4500713348388672
  6.3653841018676758  6.3653721809387207 28.4200458526611328
  6.3653640747070312  2.0371437072753906 28.4200477600097656
  0.0000011763511338  2.1174736022949219 15.7329187393188477
  2.1174733638763428  8.4024991989135742 15.7329244613647461
  4.2012567520141602  1.9179955720901489 15.7718896865844727
  4.2012596130371094  6.4845247268676758 15.7718811035156250
  6.4845128059387207  4.2012534141540527 15.7718801498413086
  6.2850232124328613  8.4025001525878906 15.7329044342041016
  8.4024991989135742  6.2850236892700195 15.7329006195068359
  1.9179828166961670  4.2012519836425781 15.7718849182128906
  0.0000008402507774  8.4025068283081055 17.7152328491210938
  2.0982491970062256  2.0982396602630615 17.8529148101806641
  2.0982537269592285  6.3042616844177246 17.8529148101806641
  4.2012543678283691  0.0000032769780773 17.9018878936767578
  6.3042535781860352  6.3042569160461426 17.8529148101806641
  6.3042573928833008  2.0982458591461182 17.8529148101806641
 -0.0000015124514903  4.2012538909912109 17.9018840789794922
  4.2012510299682617  4.2012534141540527 18.0342044830322266
 -0.0000017645267008  6.1353039741516113 19.9811058044433594
 -0.0000037811284983  2.2671952247619629 19.9811191558837891
  2.2671833038330078 -0.0000050415046644 19.9811458587646484
  2.0979928970336914  4.2012572288513184 19.9838600158691406
  4.2012481689453125  2.0979936122894287 19.9838428497314453
  6.1353101730346680 -0.0000027728276564 19.9811325073242188
  4.2012462615966797  6.3045134544372559 19.9838542938232422
  6.3045101165771484  4.2012557983398438 19.9838676452636719
  4.2012538909912109  4.2012543678283691 21.9259300231933594
  6.3018841743469238  2.1006336212158203 22.0904293060302734
 -0.0000005881755669  4.2012515068054199 22.0904140472412109
  2.1006283760070801  2.1006348133087158 22.0904331207275391
  2.1006357669830322  6.3018746376037598 22.0904293060302734
  4.2012495994567871 -0.0000045373544708 22.0904140472412109
  6.3018751144409180  6.3018755912780762 22.0904273986816406
  0.0000005041504778 -0.0000005041504778 22.2549552917480469
  0.0000139481635415  2.1032736301422119 24.1969757080078125
  2.1032738685607910  0.0000105871604319 24.1969738006591797
  4.2012591361999512  1.9340500831604004 24.1997203826904297
  4.2012510299682617  6.4684524536132812 24.1997337341308594
  6.4684629440307617  4.2012486457824707 24.1997413635253906
  6.2992367744445801  0.0000080664076449 24.1969757080078125
  0.0000079823821579  6.2992315292358398 24.1969738006591797
  1.9340658187866211  4.2012495994567871 24.1997261047363281
  0.0000023527022677  0.0000018485517330 26.1466732025146484
  2.1030132770538330  2.1030189990997314 26.3280448913574219
  2.1030054092407227  6.2995038032531738 26.3279972076416016
  4.2012500762939453  0.0000072261568675 26.2790565490722656
  6.2994976043701172  6.2995057106018066 26.3279991149902344
  6.2994995117187500  2.1030075550079346 26.3280429840087891
  0.0000062178560256  4.2012534141540527 26.2790412902832031
  4.2012591361999512  4.2012543678283691 26.4657611846923828
  0.0000046213795031  6.1192545890808105 28.4090538024902344
  0.0000041172288547  2.2832555770874023 28.4090404510498047
  2.2832608222961426  0.0000036971034660 28.4090728759765625
  2.0837733745574951  4.2012639045715332 28.4480800628662109
  4.2012581825256348  2.0837621688842773 28.4481010437011719
  6.1192522048950195  0.0000036971034660 28.4090919494628906
  4.2012629508972168  6.3187575340270996 28.4480724334716797
  6.3187470436096191  4.2012648582458496 28.4481163024902344
