Zn O 
 1.0000000000000000
    10.0590839385986328    0.0000000000000000   -1.6445510387420654
     7.2593908309936523    4.5082221031188965   -1.6445510387420654
     0.0000000000000000    0.0000000000000000   36.1801261901855469
 Zn  O  
  24  22
Cartesian
 13.2839422225952148  2.0061228275299072  9.3191127777099609
 10.8641481399536133  0.5033835768699646 10.9636621475219727
 15.7037439346313477  3.5088663101196289 10.9636611938476562
  5.4313106536865234  0.2529293000698090 12.6082115173339844
 10.2708997726440430  3.2584075927734375 12.6082124710083008
  7.8511052131652832  1.7556684017181396 10.9636621475219727
 13.2839422225952148  2.0061228275299072 12.6082124710083008
 10.8641481399536133  0.5033835768699646 14.2527618408203125
 15.7037439346313477  3.5088663101196289 14.2527599334716797
  5.4313106536865234  0.2529293000698090 15.8973112106323242
 10.2708997726440430  3.2584075927734375 15.8973112106323242
  7.8511052131652832  1.7556684017181396 14.2527618408203125
 13.2839422225952148  2.0061228275299072 15.8973474502563477
 10.8641481399536133  0.5033835768699646 17.5418968200683594
 15.7037439346313477  3.5088663101196289 17.5418949127197266
  5.4313106536865234  0.2529293000698090 19.1864471435546875
 10.2708997726440430  3.2584075927734375 19.1864471435546875
  7.8511052131652832  1.7556684017181396 17.5418968200683594
 13.2839422225952148  2.0061228275299072 19.1864471435546875
 10.8641481399536133  0.5033835768699646 20.8309955596923828
 15.7037439346313477  3.5088663101196289 20.8309955596923828
  5.4313106536865234  0.2529293000698090 22.4755458831787109
 10.2708997726440430  3.2584075927734375 22.4755458831787109
  7.8511052131652832  1.7556684017181396 20.8309955596923828
 12.2222595214843750  3.7157037258148193  9.3191127777099609
  9.8024654388427734  2.2129645347595215 10.9636621475219727
  7.3826704025268555  0.7102252840995789 12.6082124710083008
  4.3696274757385254  1.9625102281570435 12.6082115173339844
  1.9498258829116821  0.4597665071487427 14.2527627944946289
 12.2222595214843750  3.7157037258148193 12.6082124710083008
  9.8024654388427734  2.2129645347595215 14.2527618408203125
  7.3826704025268555  0.7102252840995789 15.8973112106323242
  4.3696274757385254  1.9625102281570435 15.8973112106323242
  1.9498258829116821  0.4597665071487427 17.5418624877929688
  6.7894225120544434  3.4652493000030518 14.2527618408203125
 12.2222595214843750  3.7157037258148193 15.8973474502563477
  9.8024654388427734  2.2129645347595215 17.5418968200683594
  7.3826704025268555  0.7102252840995789 19.1864471435546875
  4.3696274757385254  1.9625102281570435 19.1864471435546875
  1.9498258829116821  0.4597665071487427 20.8309974670410156
  6.7894225120544434  3.4652493000030518 17.5418968200683594
 12.2222595214843750  3.7157037258148193 19.1864471435546875
  9.8024654388427734  2.2129645347595215 20.8309955596923828
  4.3696274757385254  1.9625102281570435 22.4755458831787109
  1.9498258829116821  0.4597665071487427 24.1200962066650391
  6.7894225120544434  3.4652493000030518 20.8309955596923828
