Zn O 
 1.0000000000000000
    10.0590839385986328    0.0000000000000000   -1.6445510387420654
     7.2593908309936523    4.5082221031188965   -1.6445510387420654
     0.0000000000000000    0.0000000000000000   36.1801261901855469
 Zn  O  
  24  22
Cartesian
 13.3170814514160156  2.4792282581329346  9.5907726287841797
  0.3468441367149353  0.2531720101833344 13.0107707977294922
  5.7486667633056641  3.5182936191558838 12.5729980468750000
  5.3891525268554688  0.2117969840764999 12.4303016662597656
 10.3288898468017578  3.2044775485992432 12.5263319015502930
  7.8056249618530273  2.2453713417053223 11.4230556488037109
  3.2103295326232910  1.9799169301986694 14.2645406723022461
  0.8525574207305908  0.4757752418518066 15.9325294494628906
  5.6589646339416504  3.4700753688812256 15.9053249359130859
  5.4456429481506348  0.2144998461008072 15.8518419265747070
 10.2943668365478516  3.2213587760925293 15.8944883346557617
  7.8955707550048828  1.7021090984344482 14.2831783294677734
  3.2473235130310059  1.9688197374343872 17.5446090698242188
  0.8332557082176208  0.4733402729034424 19.2318515777587891
  5.6729531288146973  3.4451789855957031 19.1562824249267578
  5.4350481033325195  0.1983306556940079 19.1510391235351562
 10.3012151718139648  3.2600986957550049 19.1744995117187500
  7.8796296119689941  1.7257554531097412 17.5340957641601562
  3.2472984790802002  1.9299796819686890 20.9126396179199219
  0.8602204918861389  0.5229477286338806 22.6536121368408203
 15.2846279144287109  3.7664451599121094 20.3719120025634766
  5.8588604927062988  0.5526664257049561 22.0729999542236328
  9.8322725296020508  3.4389088153839111 22.2036266326904297
  7.7966966629028320  1.6666889190673828 20.8663215637207031
 12.2557449340820312  3.8148660659790039  9.1162643432617188
  9.6936883926391602  1.9878728389739990 11.1111822128295898
  7.3898892402648926  0.6623039245605469 12.6140260696411133
  4.4333229064941406  1.9520380496978760 12.5858573913574219
  1.9794024229049683  0.4130464196205139 14.2319450378417969
 12.2565326690673828  3.7086896896362305 12.5387916564941406
  9.8439254760742188  2.1813592910766602 14.2557277679443359
  7.3991823196411133  0.6675776243209839 15.9054327011108398
  4.3796534538269043  1.9251863956451416 15.8775529861450195
  1.9740365743637085  0.4223876595497131 17.5759887695312500
  6.8254160881042480  3.4254028797149658 14.2842006683349609
 12.2448654174804688  3.6775374412536621 15.8631162643432617
  9.8315954208374023  2.1873557567596436 17.5617046356201172
  7.4024524688720703  0.6603860259056091 19.1552371978759766
  4.3794364929199219  1.9113905429840088 19.1832847595214844
  1.9408484697341919  0.4258322119712830 20.9004135131835938
  6.8202891349792480  3.4314994812011719 17.5340251922607422
 12.2512960433959961  3.6685218811035156 19.2069988250732422
  9.7835578918457031  2.1516418457031250 20.8532638549804688
  4.6193070411682129  1.9598352909088135 22.3279399871826172
  1.8462046384811401  0.4741402566432953 24.3227310180664062
  6.8290133476257324  3.4376075267791748 20.8255939483642578
