Ni O 
 1.0000000000000000
     8.1986503601074219    0.0000000000000000    1.0289880037307739
     4.0591487884521484    9.4208240509033203    0.8346049785614014
     0.0000000000000000    0.0000000000000000   33.1766052246093750
 Ni  O  
  36  42
Cartesian
  5.6208095550537109  5.7380137443542480 21.6370735168457031
  9.3159093856811523  2.8898277282714844 22.9223709106445312
  9.8062419891357422  8.7204589843750000 21.3800582885742188
  6.8160877227783203  7.7807521820068359 22.3344554901123047
  3.6513652801513672  4.1819629669189453 20.3785495758056641
  7.3182406425476074  1.3593366146087646 21.7605037689208984
  3.9666504859924316  7.5835556983947754 22.0697536468505859
  7.7408194541931152  4.0872054100036621 21.0650215148925781
  3.8040993213653564  1.1903944015502930 21.1534748077392578
  5.9789423942565918  5.0753054618835449 18.8911170959472656
  1.8180918693542480  2.1879823207855225 19.2911033630371094
 10.2011480331420898  7.9975423812866211 18.5667686462402344
  7.9152793884277344  6.8749070167541504 20.0858249664306641
  4.0714249610900879  3.2571065425872803 17.6871891021728516
  8.0512533187866211  0.4039659798145294 19.0409564971923828
  3.8320200443267822  6.9251117706298828 19.5588169097900391
  8.1519184112548828  3.2677698135375977 18.2348270416259766
  3.9872691631317139  0.3782689869403839 18.4501075744628906
  6.3213591575622559  4.3486514091491699 16.1541194915771484
  2.1327447891235352  1.4263778924942017 16.4822406768798828
 10.5880470275878906  7.2392201423645020 15.7650156021118164
  8.2658329010009766  6.1581311225891113 17.3243999481201172
  4.4003453254699707  2.5030784606933594 14.9735221862792969
  4.2824344635009766  9.0477056503295898 16.0893383026123047
  4.1776256561279297  6.1699538230895996 16.8504886627197266
  8.4915628433227539  2.5462255477905273 15.4731082916259766
  8.3653793334960938  9.0209236145019531 16.5207233428955078
  6.6414327621459961  3.6655230522155762 13.4143762588500977
  2.4455740451812744  0.6996668577194214 13.6592884063720703
 10.5482807159423828  6.5441517829895020 13.0689783096313477
  8.5642566680908203  5.3334865570068359 14.4784593582153320
  5.1683945655822754  1.8141399621963501 12.5799570083618164
  4.7738633155822754  8.2321262359619141 13.4205942153930664
  4.4299488067626953  5.2415242195129395 14.1409921646118164
  7.9748120307922363  1.6260235309600830 13.0207834243774414
  8.3211002349853516  8.0574598312377930 13.7026309967041016
  1.6937274932861328  3.8061900138854980 20.2851600646972656
  5.5165405273437500  0.6566972136497498 21.7790946960449219
  5.7233567237854004  4.1308774948120117 20.5187873840332031
  1.8280268907546997  1.3065041303634644 21.0754985809326172
  7.4986910820007324  6.0598783493041992 22.0177879333496094
 11.6897125244140625  8.8191785812377930 21.7582283020019531
  7.4871120452880859  2.9804346561431885 22.7808418273925781
  7.9073109626770020  8.7741813659667969 21.1203422546386719
  3.6760489940643311  5.8120508193969727 21.6391487121582031
  5.8361992835998535  6.6756973266601562 19.8521842956542969
  1.9924312829971313  2.9966537952423096 17.5757389068603516
  6.0182127952575684  0.1640800386667252 18.7262077331542969
  9.9929885864257812  7.1832871437072754 20.2791404724121094
  6.1266231536865234  3.5070080757141113 17.8402252197265625
  1.9362112283706665  0.6328762769699097 18.2061405181884766
  7.8350210189819336  5.0678720474243164 19.1635131835937500
  3.6758117675781250  2.2646441459655762 19.4843368530273438
  3.8547499179840088  7.9969120025634766 17.8105278015136719
  8.1447982788085938  2.1877477169036865 20.1001262664794922
  8.3480291366577148  7.9756193161010742 18.3363075256347656
  4.1125230789184570  5.1075310707092285 18.6436271667480469
  6.2057294845581055  5.9198403358459473 17.2080669403076172
  2.3527390956878662  2.2373597621917725 14.7701807022094727
 10.4335823059082031  8.7927274703979492 16.8470935821533203
 10.3344249725341797  6.4298439025878906 17.4692173004150391
  6.4185910224914551  2.7425155639648438 15.2011632919311523
  6.3176269531250000  9.2589521408081055 16.3255920410156250
  8.1880664825439453  4.3572411537170410 16.3445186614990234
  3.9959957599639893  1.4289190769195557 16.6767730712890625
  4.2370419502258301  7.1607022285461426 15.0078430175781250
  8.4801206588745117  1.4489153623580933 17.2781276702880859
  8.7185392379760742  7.2343711853027344 15.5163555145263672
  4.4512348175048828  4.3198633193969727 15.9369754791259766
  6.4732613563537598  5.2831816673278809 14.5063676834106445
 11.0374746322631836  8.1251840591430664 14.0370731353759766
  2.5138800144195557  5.6227512359619141 13.7382068634033203
  6.5851149559020996  8.7674064636230469 13.2350130081176758
  8.5555324554443359  3.3499252796173096 13.4945116043090820
  4.3632860183715820  0.5897092223167419 13.7619228363037109
  0.5418099761009216  0.6461123228073120 13.4420032501220703
  8.7429523468017578  6.4397444725036621 12.7516069412231445
  4.7469511032104492  3.5771117210388184 12.9607677459716797
