Ni O 
 1.0000000000000000
     8.1986503601074219    0.0000000000000000    1.0289880037307739
     4.0591487884521484    9.4208240509033203    0.8346049785614014
     0.0000000000000000    0.0000000000000000   33.1766052246093750
 Ni  O  
  36  44
Cartesian
  5.6293473243713379  5.8083658218383789 21.6168842315673828
  1.6876643896102905  2.9716825485229492 21.9337921142578125
  9.8017520904541016  8.8159646987915039 21.4186229705810547
  7.9216432571411133  7.3989267349243164 22.7070217132568359
  3.7226009368896484  4.0573272705078125 20.5442333221435547
  7.6033177375793457  1.1927105188369751 21.5830364227294922
  3.0356159210205078  7.4082646369934082 22.1719970703125000
  7.8414411544799805  4.1742506027221680 20.8674354553222656
  3.8306980133056641  1.3443902730941772 21.2966709136962891
  5.9708843231201172  5.0944590568542480 18.8902435302734375
  1.7125245332717896  2.2197215557098389 19.2306613922119141
 10.1525306701660156  7.9885582923889160 18.6116828918457031
  7.8478369712829590  6.9713845252990723 20.0565414428710938
  4.0299968719482422  3.2490260601043701 17.7265472412109375
  8.0172176361083984  0.3975148797035217 18.9675350189208984
  3.8254890441894531  6.9162869453430176 19.6082534790039062
  8.1428203582763672  3.2935051918029785 18.1462669372558594
  3.8932123184204102  0.3925158977508545 18.5039691925048828
  6.2863626480102539  4.3231449127197266 16.1635341644287109
  2.1040971279144287  1.4336793422698975 16.4480648040771484
 10.5419197082519531  7.2031712532043457 15.8204145431518555
  8.2202262878417969  6.1790904998779297 17.3074283599853516
  4.3997130393981934  2.4424493312835693 14.9441499710083008
  4.2622385025024414  9.0371236801147461 16.0543632507324219
  4.1267824172973633  6.1334867477416992 16.8882961273193359
  8.4447002410888672  2.4875633716583252 15.4165878295898438
  8.3556795120239258  9.0523748397827148 16.5109462738037109
  6.6301765441894531  3.5803248882293701 13.4451265335083008
  2.4625532627105713  0.5705001354217529 13.5686016082763672
 10.5718040466308594  6.4079937934875488 13.1222906112670898
  8.5228681564331055  5.3625607490539551 14.5028295516967773
  4.3320016860961914  1.9924529790878296 12.2839269638061523
  4.6280131340026855  8.2695121765136719 13.4349861145019531
  4.4233183860778809  5.2427377700805664 14.1779756546020508
  1.0355899333953857  2.0112984180450439 11.8135271072387695
  8.4744758605957031  8.1307325363159180 13.7486629486083984
  9.7755584716796875  3.8445987701416016 21.2366199493408203
  5.7241477966308594  1.0204178094863892 21.4581184387207031
  9.5451917648315430  8.1047763824462891 23.2030982971191406
  5.8165998458862305  4.1789822578430176 20.5251064300537109
  1.3257582187652588  1.3636039495468140 20.9440231323242188
  7.4948043823242188  5.7481632232666016 22.0913105010986328
  3.4863069057464600  2.9727771282196045 22.2762947082519531
 11.6546106338500977  8.7224235534667969 21.7113380432128906
  7.9228529930114746  8.8107795715332031 21.2789058685302734
  3.7250666618347168  5.8839416503906250 21.4941921234130859
  5.8596677780151367  6.7177753448486328 19.8466815948486328
  1.9730122089385986  3.0151689052581787 17.5239295959472656
  5.9585008621215820  0.1332171410322189 18.8479862213134766
  9.9058933258056641  7.1961293220520020 20.3445301055908203
  6.1017031669616699  3.5110709667205811 17.8663101196289062
  1.8519973754882812  0.6395422220230103 18.1794719696044922
  7.8355898857116699  5.1413421630859375 19.0886173248291016
  3.5646193027496338  2.1949737071990967 19.4801292419433594
  3.8084635734558105  7.9842782020568848 17.8224124908447266
  8.0738658905029297  2.2748641967773438 19.9816722869873047
  8.3023185729980469  8.0128555297851562 18.3548030853271484
  4.1047420501708984  5.0819363594055176 18.7055797576904297
  6.1568646430969238  5.9128608703613281 17.1904373168945312
  2.3326301574707031  2.2513976097106934 14.7586784362792969
 10.4054307937622070  8.7820243835449219 16.8934631347656250
 10.2845363616943359  6.4217934608459473 17.5424175262451172
  6.3985166549682617  2.7015440464019775 15.2317762374877930
  6.2901082038879395  9.2713403701782227 16.2925605773925781
  8.1540050506591797  4.3367981910705566 16.3419532775878906
  3.9605209827423096  1.4176530838012695 16.6916961669921875
  4.1868972778320312  7.1544394493103027 15.0465507507324219
  8.4449338912963867  1.4359328746795654 17.2289714813232422
  8.6905956268310547  7.2289004325866699 15.5692853927612305
  4.4229283332824707  4.2822046279907227 15.9615430831909180
  6.4404535293579102  5.2283883094787598 14.5284748077392578
  2.7371799945831299  1.3901931047439575 11.6154594421386719
 10.8964719772338867  8.0307216644287109 14.1045503616333008
  2.4768371582031250  5.5717778205871582 13.8341903686523438
  6.5301094055175781  8.3254251480102539 13.5622892379760742
  8.5341234207153320  3.5362453460693359 13.5749197006225586
  4.4713644981384277  0.6324614882469177 13.7307929992675781
  0.4744125008583069  0.7243409752845764 13.2587947845458984
  8.7721176147460938  6.4653816223144531 12.7955226898193359
  4.7518849372863770  3.6224641799926758 13.0304079055786133
