Ni O 
 1.0000000000000000
     8.1986503601074219    0.0000000000000000    1.0289880037307739
     4.0591487884521484    9.4208240509033203    0.8346049785614014
     0.0000000000000000    0.0000000000000000   33.1766052246093750
 Ni  O  
  36  44
Cartesian
  5.5928664207458496  5.8865675926208496 21.6692790985107422
  1.4846858978271484  3.0352499485015869 21.9559535980224609
  9.8083066940307617  8.7879495620727539 21.4102554321289062
  7.6458954811096191  7.6576271057128906 22.7968521118164062
  3.6772849559783936  4.0484495162963867 20.4726314544677734
  7.6407146453857422  1.1580961942672729 21.6711883544921875
  3.3555738925933838  7.6469359397888184 22.2584705352783203
  7.7849936485290527  4.1013760566711426 20.9019393920898438
  3.6211845874786377  1.2552816867828369 21.2438354492187500
  5.9533205032348633  5.1134171485900879 18.9175968170166016
  1.7618545293807983  2.2341721057891846 19.1862754821777344
 10.1554393768310547  7.9818701744079590 18.6030712127685547
  7.8698616027832031  6.9191503524780273 20.1172599792480469
  4.0326795578002930  3.2730710506439209 17.6677913665771484
  8.0307397842407227  0.3924228250980377 18.9733505249023438
  3.8018281459808350  6.9101934432983398 19.6116809844970703
  8.1227741241455078  3.2799668312072754 18.1683883666992188
  3.9252004623413086  0.3999795615673065 18.4622974395751953
  6.3039793968200684  4.3084812164306641 16.1241359710693359
  2.1031074523925781  1.4322023391723633 16.4338798522949219
 10.4962215423583984  7.1883339881896973 15.8506650924682617
  8.2232770919799805  6.1477537155151367 17.3720016479492188
  4.3860101699829102  2.4939956665039062 14.9197902679443359
  4.2375845909118652  9.0345230102539062 16.0598487854003906
  4.1368846893310547  6.1405916213989258 16.8719043731689453
  8.4580430984497070  2.5039322376251221 15.4269580841064453
  8.3243017196655273  9.0278148651123047 16.5679912567138672
  6.6636762619018555  3.5353009700775146 13.3773927688598633
  2.4523346424102783  0.6266673803329468 13.6129531860351562
 10.7736253738403320  6.3862185478210449 13.0858507156372070
  8.5801553726196289  5.3715157508850098 14.5686035156250000
  4.6045212745666504  1.7586177587509155 12.2470788955688477
  4.6122899055480957  8.2697563171386719 13.3713054656982422
  4.4739418029785156  5.3187813758850098 14.1381473541259766
  8.9090270996093750  1.7698992490768433 12.7864704132080078
  8.6399555206298828  8.1750211715698242 13.8012924194335938
  9.7677812576293945  3.8340017795562744 21.2088413238525391
  5.6615195274353027  0.9322471618652344 21.5365772247314453
  9.5944452285766602  7.9537606239318848 23.0725193023681641
  5.7655315399169922  4.2434992790222168 20.5801296234130859
  1.4748526811599731  1.3469671010971069 20.9011917114257812
  7.4871678352355957  5.9352431297302246 21.9399166107177734
  3.2744891643524170  2.9708733558654785 22.1778354644775391
 11.6791229248046875  8.7813596725463867 21.6411514282226562
  7.9330110549926758  8.7652597427368164 21.1680011749267578
  3.7338805198669434  5.9755187034606934 21.4622955322265625
  5.8374838829040527  6.7248439788818359 19.8633346557617188
  1.9675391912460327  3.0207235813140869 17.4904460906982422
  5.9691042900085449  0.1381707042455673 18.8048954010009766
  9.9429044723510742  7.1831488609313965 20.2982025146484375
  6.0882143974304199  3.5192444324493408 17.8528575897216797
  1.8838417530059814  0.6432715058326721 18.1535243988037109
  7.8196821212768555  5.0931520462036133 19.1374759674072266
  3.6046354770660400  2.2116684913635254 19.4246635437011719
  3.8168342113494873  7.9862203598022461 17.8020343780517578
  8.0844907760620117  2.2228014469146729 20.0307025909423828
  8.3002185821533203  7.9847397804260254 18.3686790466308594
  4.0956788063049316  5.1031441688537598 18.6571426391601562
  6.1700229644775391  5.9006533622741699 17.1862506866455078
  2.3118133544921875  2.2637491226196289 14.7611494064331055
 10.3735246658325195  8.7742118835449219 16.8906002044677734
 10.2897272109985352  6.4046654701232910 17.5522670745849609
  6.4219160079956055  2.6995100975036621 15.1732120513916016
  6.2796263694763184  9.2563199996948242 16.3040733337402344
  8.1626071929931641  4.3178925514221191 16.3819084167480469
  3.9588987827301025  1.4363874197006226 16.6756038665771484
  4.1727633476257324  7.1949057579040527 15.0100498199462891
  8.4384403228759766  1.4353377819061279 17.2416019439697266
  8.6534662246704102  7.2055683135986328 15.6154823303222656
  4.4384999275207520  4.3283462524414062 15.9027557373046875
  6.4928302764892578  5.1775231361389160 14.4588308334350586
  2.6697180271148682  1.4945585727691650 11.9085445404052734
 10.7819414138793945  8.0694122314453125 14.1387958526611328
  2.4883518218994141  5.5873026847839355 13.8298273086547852
  6.6000256538391113  8.4625091552734375 13.4932193756103516
  8.5187120437622070  3.4500479698181152 13.5791912078857422
  4.4061861038208008  0.6553168296813965 13.8779783248901367
  0.4988412261009216  0.6390725374221802 13.3839416503906250
  8.9820728302001953  6.4483504295349121 12.8637819290161133
  4.7754030227661133  3.4902715682983398 13.1020803451538086
