Zn O 
 1.0000000000000000
    10.0590839385986328    0.0000000000000000   -1.6445510387420654
     7.2593908309936523    4.5082221031188965   -1.6445510387420654
     0.0000000000000000    0.0000000000000000   36.1801261901855469
 Zn  O  
  24  20
Cartesian
 13.0181531906127930  2.6860561370849609  9.5998306274414062
  0.3653071820735931  0.2638145387172699 13.0073003768920898
  5.7238936424255371  3.4709563255310059 12.5200052261352539
  5.4523720741271973  0.2559689581394196 12.5700263977050781
 10.3365030288696289  3.2039091587066650 12.5509738922119141
  7.8485298156738281  2.2780487537384033 11.4009056091308594
  3.2570941448211670  1.9577733278274536 14.2118215560913086
  0.8536721467971802  0.4570763111114502 15.9178009033203125
  5.6698265075683594  3.4494950771331787 15.8894357681274414
  5.4607920646667480  0.2107474356889725 15.8878889083862305
 10.3056039810180664  3.2078940868377686 15.9069347381591797
  7.9038643836975098  1.7013331651687622 14.2801809310913086
  3.2549867630004883  1.9527255296707153 17.5320491790771484
  0.8296786546707153  0.4584407806396484 19.1958389282226562
  5.6701683998107910  3.4376003742218018 19.1591892242431641
  5.4511370658874512  0.1889101862907410 19.1660881042480469
 10.2999963760375977  3.2078161239624023 19.2274322509765625
  7.8930931091308594  1.7069325447082520 17.5496463775634766
  3.2445127964019775  1.9228599071502686 20.8881263732910156
  0.7929726243019104  0.4856040477752686 22.5134925842285156
 15.2363061904907227  3.7424278259277344 20.3940830230712891
  5.8409562110900879  0.5409374833106995 22.0767135620117188
  9.7801780700683594  3.7985169887542725 22.1945152282714844
  7.8500905036926270  1.6678979396820068 20.9190502166748047
  9.7387962341308594  2.0131397247314453 11.0803194046020508
  7.4271402359008789  0.6780506372451782 12.5729570388793945
  4.4360103607177734  1.9318350553512573 12.5522718429565430
  1.9916479587554932  0.4103361666202545 14.2330808639526367
 12.2712860107421875  3.6894254684448242 12.5822706222534180
  9.8503284454345703  2.1707770824432373 14.2592611312866211
  7.4170045852661133  0.6588751077651978 15.9045801162719727
  4.3868551254272461  1.9120535850524902 15.8744144439697266
  1.9814622402191162  0.4073067307472229 17.5575675964355469
  6.8196120262145996  3.4155201911926270 14.2534694671630859
 12.2554159164428711  3.6640791893005371 15.8816480636596680
  9.8399419784545898  2.1753118038177490 17.5646209716796875
  7.4137625694274902  0.6611751914024353 19.1856727600097656
  4.3862166404724121  1.9010421037673950 19.1799411773681641
  1.9515967369079590  0.4039202332496643 20.8567447662353516
  6.8201789855957031  3.4118137359619141 17.5346012115478516
 12.2480020523071289  3.6561882495880127 19.2062129974365234
  9.8006515502929688  2.1397342681884766 20.8869972229003906
  4.5765390396118164  1.9306439161300659 22.3592147827148438
  6.7985301017761230  3.4112739562988281 20.8665161132812500
