Zn O 
 1.0000000000000000
    10.0590839385986328    0.0000000000000000   -1.6445510387420654
     7.2593908309936523    4.5082221031188965   -1.6445510387420654
     0.0000000000000000    0.0000000000000000   36.1801261901855469
 Zn  O  
  24  20
Cartesian
  3.2541038990020752  1.9932274818420410 13.5784769058227539
 10.3367958068847656  0.5763989686965942 10.9625463485717773
  5.7580261230468750  3.4915897846221924 11.9194631576538086
  5.5466837882995605  0.4872561693191528 12.3667125701904297
 10.2452182769775391  3.1528010368347168 11.9190912246704102
  8.0243082046508789  2.3113932609558105 10.9446439743041992
  3.2814562320709229  1.9990355968475342 16.9752464294433594
  0.8879264593124390  0.4742632508277893 15.3986177444458008
  5.6539392471313477  3.4571282863616943 15.3144207000732422
  5.3999309539794922  0.2094658762216568 15.3562431335449219
 10.3144149780273438  3.2313122749328613 15.3641204833984375
  7.9341354370117188  1.7384489774703979 13.7948970794677734
  3.2032985687255859  1.9236942529678345 20.1920585632324219
  0.8101006746292114  0.4527642428874969 18.6234779357910156
  5.6973581314086914  3.5170104503631592 18.6301155090332031
  5.4740247726440430  0.2214702367782593 18.6730880737304688
 10.2602891921997070  3.1714713573455811 18.5900764465332031
  7.8327345848083496  1.7019280195236206 17.0121059417724609
 12.7092390060424805  2.0994877815246582 21.3943538665771484
  0.9091439247131348  0.4803939163684845 22.0677299499511719
 15.4434556961059570  3.5090413093566895 19.9758224487304688
  5.3957595825195312  0.1417348086833954 22.0692939758300781
 10.4342899322509766  3.7697410583496094 21.3835773468017578
  7.8505711555480957  1.7229055166244507 20.4092559814453125
 12.1886386871337891  3.6710638999938965 12.0092134475708008
  7.4507498741149902  0.6923947334289551 12.0702962875366211
  4.4857587814331055  2.0219082832336426 12.0538635253906250
  2.0009660720825195  0.4358794689178467 13.6909036636352539
 12.2602424621582031  3.6925308704376221 15.3642368316650391
  9.8754796981811523  2.1878793239593506 13.7224082946777344
  7.3661932945251465  0.6490290760993958 15.3575448989868164
  4.3653459548950195  1.9268553256988525 15.3015928268432617
  2.0177612304687500  0.4423160552978516 17.0272693634033203
  6.8608713150024414  3.4435055255889893 13.7307958602905273
 12.2099933624267578  3.6413881778717041 18.6116466522216797
  9.7883300781250000  2.1447572708129883 16.9608612060546875
  7.4171009063720703  0.6977025866508484 18.6855907440185547
  4.4317989349365234  1.9497548341751099 18.6296882629394531
  1.9394108057022095  0.3833948969841003 20.2657909393310547
  6.7937655448913574  3.4211406707763672 16.9780941009521484
  9.8018388748168945  2.1585209369659424 20.2990093231201172
  7.2777895927429199  0.6308929920196533 21.9325828552246094
  4.3558874130249023  1.8935624361038208 21.9162769317626953
  6.8448300361633301  3.4750645160675049 20.3322219848632812
