Zn O 
 1.0000000000000000
     8.0972909927368164    0.0000000000000000   -0.5697230100631714
    -3.4473609924316406    7.3267879486083984    0.5697230100631714
     0.0000000000000000    0.0000000000000000   33.0439567565917969
 Zn  O  
  36  40
Cartesian
  5.5800561904907227  1.6347154378890991 20.0534839630126953
 -0.1960209757089615  5.2160544395446777 20.9100723266601562
  8.0847206115722656  0.0105410497635603 20.9289245605468750
  2.2527275085449219  3.7078170776367188 21.5993881225585938
  3.1501910686492920  3.1251215934753418 18.7569179534912109
 -2.5955488681793213  6.7574744224548340 19.3112335205078125
  2.7281935214996338  0.8735169768333435 20.6813755035400391
  4.9888648986816406  4.5033450126647949 20.6813564300537109
  2.0424280166625977  6.7390661239624023 22.4928703308105469
 -0.3825502693653107  2.7281882762908936 22.4540576934814453
  2.6205327510833740  6.0066690444946289 19.6168689727783203
  0.3107367753982544  2.3754551410675049 19.6105861663818359
 -1.6734541654586792  6.1684679985046387 16.4949436187744141
  4.1169009208679199  2.5156359672546387 15.9545373916625977
  6.5020732879638672  0.9836016297340393 17.0960044860839844
  0.7190958857536316  4.6664762496948242 17.6903915405273438
  1.7052056789398193  4.0370397567749023 14.8216056823730469
  7.4654846191406250  0.3780663013458252 14.2338151931762695
  1.2445234060287476  1.7569143772125244 16.7504253387451172
  3.5799627304077148  5.4145359992980957 16.7629184722900391
  3.6390576362609863  0.2213533222675323 17.8365345001220703
  6.0247263908386230  3.8957371711730957 17.9372577667236328
  1.1958380937576294  6.9252657890319824 15.5880022048950195
 -1.1322081089019775  3.2696111202239990 15.6044168472290039
  2.6816275119781494  3.4175212383270264 12.0024538040161133
 -3.0907795429229736  7.0786056518554688 12.5794353485107422
 -0.7212550044059753  5.5784463882446289 13.6709918975830078
  5.0472297668457031  1.9129049777984619 13.1092481613159180
  5.7568664550781250  1.4720044136047363 10.2891225814819336
 -0.0228049363940954  5.1184659004211426 10.8519754409790039
  2.1240990161895752  6.3409218788146973 12.4940223693847656
 -0.1954477876424789  2.6702966690063477 12.5418729782104492
  2.1997456550598145  1.1594812870025635 13.9394512176513672
  4.5207610130310059  4.8125410079956055 13.9490213394165039
  3.1006405353546143  0.5818673968315125 11.1478738784790039
  5.4216060638427734  4.2448325157165527 11.1592464447021484
  6.6298975944519043  1.0965366363525391 21.8806209564208984
  0.6445505619049072  4.3635773658752441 22.5560264587402344
  7.1736183166503906  0.4942450523376465 19.0328521728515625
  1.4235681295394897  4.2591848373413086 19.6373939514160156
 -1.9823114871978760  6.2079663276672363 21.2707614898681641
  3.8683867454528809  2.7783689498901367 20.7439517974853516
  2.0196652412414551  1.2644906044006348 18.7081050872802734
  4.2986216545104980  4.9454407691955566 18.6842632293701172
  0.8735615015029907  7.1093883514404297 20.8861026763916016
 -1.3951559066772461  3.4231727123260498 20.5310573577880859
  3.3579781055450439  5.5520615577697754 21.6149387359619141
  1.1712757349014282  1.7473565340042114 21.4515838623046875
  4.8238658905029297  2.0049252510070801 17.9524650573730469
 -0.9500867724418640  5.7536163330078125 18.3892822265625000
  0.0511799715459347  5.0870103836059570 15.5503368377685547
  5.8102459907531738  1.4279850721359253 15.0166482925415039
 -3.3699927330017090  7.2700095176696777 17.3601741790771484
  2.3950703144073486  3.5785429477691650 16.8091373443603516
  2.8718063831329346  5.8682613372802734 14.8110933303833008
  0.5162806510925293  2.2173395156860352 14.7533912658691406
  2.9617953300476074  0.7061559557914734 15.8620843887329102
  5.2816863059997559  4.2978038787841797 15.9207067489624023
  1.8560250997543335  6.4977102279663086 17.6732692718505859
 -0.4268382489681244  2.8221085071563721 17.6638908386230469
 -2.4111788272857666  6.6400899887084961 14.5745429992675781
  3.3504114151000977  3.0011541843414307 13.9862976074218750
 -1.5281443595886230  6.0848202705383301 11.7477540969848633
  4.2291278839111328  2.4378998279571533 11.1748390197753906
  6.7821569442749023  0.8118901848793030 11.9575567245483398
  1.0234407186508179  4.4715847969055176 12.4797582626342773
  1.1418883800506592  6.9814457893371582 10.7442245483398438
 -1.1879922151565552  3.2866318225860596 10.7696790695190430
  1.5276365280151367  1.5566099882125854 11.9773139953613281
  3.8590042591094971  5.2625474929809570 11.9751424789428711
  3.9661686420440674  0.0365414768457413 13.0707874298095703
  6.2610626220703125  3.7088015079498291 13.0871734619140625
  4.2187881469726562  0.8673744797706604 24.2523002624511719
  0.6595275402069092  7.1569142341613770 24.1150875091552734
 -2.7938160896301270  6.6897106170654297 25.0396633148193359
  0.8034459948539734  0.3521107733249664 25.1925525665283203
