Zn O 
 1.0000000000000000
     8.0972909927368164    0.0000000000000000   -0.5697230100631714
    -3.4473609924316406    7.3267879486083984    0.5697230100631714
     0.0000000000000000    0.0000000000000000   33.0439567565917969
 Zn  O  
  36  40
Cartesian
  5.5718984603881836  1.6027349233627319 19.9877853393554688
 -0.2004276216030121  5.2661290168762207 20.5575065612792969
  7.9770302772521973  0.0763231515884399 21.1272430419921875
  2.2047042846679688  3.7397172451019287 21.6969661712646484
  3.1667664051055908  3.1291465759277344 18.8483600616455078
 -2.6055595874786377  6.7925405502319336 19.4180812835693359
  2.7258245944976807  0.8395253419876099 20.8423919677734375
  5.0507898330688477  4.5029191970825195 20.8423919677734375
  1.6835956573486328  6.6399016380310059 22.5515384674072266
 -0.6413694024085999  2.9765076637268066 22.5515384674072266
  2.6456460952758789  6.0293383598327637 19.7029342651367188
  0.3206811249256134  2.3659443855285645 19.7029342651367188
 -1.6435091495513916  6.1819772720336914 16.5694427490234375
  4.1288170814514160  2.5185832977294922 15.9997205734252930
  6.5339488983154297  0.9921716451644897 17.1391792297363281
  0.7616228461265564  4.6555657386779785 17.7089023590087891
  1.7236849069595337  4.0449953079223633 14.8602952957153320
  7.4960107803344727  0.3816010951995850 14.2905721664428711
  1.2827430963516235  1.7553738355636597 16.8543281555175781
  3.6077082157135010  5.4187679290771484 16.8543281555175781
  3.6878750324249268  0.2289621233940125 17.9937534332275391
  6.0128402709960938  3.8923561573028564 17.9937534332275391
  1.2025645971298218  6.9451870918273926 15.7148704528808594
 -1.1224004030227661  3.2817928791046143 15.7148704528808594
  2.6857354640960693  3.4344317913055420 12.0116567611694336
 -3.0865905284881592  7.0978260040283203 12.5813798904418945
 -0.6814586520195007  5.5714139938354492 13.7208385467529297
  5.0908675193786621  1.9080201387405396 13.1511154174804688
  6.0529294013977051  1.2974495887756348 10.3025083541870117
  0.2806033790111542  4.9608435630798340 10.8722314834594727
  2.1646265983581543  6.3346161842346191 12.8662633895874023
 -0.1603383570909500  2.6712224483489990 12.8662633895874023
  2.2447936534881592  1.1448106765747070 14.0056886672973633
  4.5697584152221680  4.8082046508789062 14.0056886672973633
  3.2068440914154053  0.5342473983764648 11.1570835113525391
  5.5318093299865723  4.1976413726806641 11.1570835113525391
  6.2934389114379883  1.1448106765747070 21.9818172454833984
  0.5211130976676941  4.8082046508789062 22.5515384674072266
  7.2554898262023926  0.5342473983764648 19.1332111358642578
  1.4831635951995850  4.1976413726806641 19.7029342651367188
 -1.8840188980102539  6.3346161842346191 21.4121131896972656
  3.8883070945739746  2.6712224483489990 20.8423919677734375
  2.0042839050292969  1.2974495887756348 18.8483600616455078
  4.3292489051818848  4.9608435630798340 18.8483600616455078
  0.9620548486709595  7.0978260040283203 20.5575065612792969
 -1.3629101514816284  3.4344317913055420 20.5575065612792969
  3.3671867847442627  5.5714139938354492 21.6969661712646484
  1.0422219038009644  1.9080201387405396 21.6969661712646484
  4.8503575325012207  2.0606591701507568 17.9937534332275391
 -0.9219684004783630  5.7240529060363770 18.5634746551513672
  0.0400821119546890  5.1134901046752930 15.7148704528808594
  5.8124079704284668  1.4500958919525146 15.1451473236083984
 -3.3271002769470215  7.2504649162292480 17.4240493774414062
  2.4452257156372070  3.5870709419250488 16.8543281555175781
  2.8861672878265381  5.8766922950744629 14.8602952957153320
  0.5612024068832397  2.2132980823516846 14.8602952957153320
  2.9663343429565430  0.6868863701820374 15.9997205734252930
  5.2912993431091309  4.3502802848815918 15.9997205734252930
  1.9241054058074951  6.4872627258300781 17.7089023590087891
 -0.4008596539497375  2.8238687515258789 17.7089023590087891
 -2.3650498390197754  6.6399016380310059 14.5754117965698242
  3.4072761535644531  2.9765076637268066 14.0056886672973633
 -1.4029994010925293  6.0293383598327637 11.7268066406250000
  4.3693265914916992  2.3659443855285645 11.1570835113525391
  6.7744703292846680  0.8395253419876099 12.2965402603149414
  1.0021440982818604  4.5029191970825195 12.8662633895874023
  1.4430859088897705  6.7925405502319336 10.8722314834594727
 -0.8818790912628174  3.1291465759277344 10.8722314834594727
  1.5232528448104858  1.6027349233627319 12.0116567611694336
  3.8482179641723633  5.2661290168762207 12.0116567611694336
  3.9283847808837891  0.0763231515884399 13.1511154174804688
  6.2533497810363770  3.7397172451019287 13.1511154174804688
  3.4473652839660645  0.3816010951995850 22.8364219665527344
 -0.0000015348430225  6.6804995536804199 22.7715358734130859
 -2.8460807800292969  6.9451870918273926 24.2607212066650391
  0.6012860536575317  0.6462886333465576 23.0564212799072266
