Ni O 
 1.0000000000000000
     8.1986503601074219    0.0000000000000000    1.0289880037307739
     4.0591487884521484    9.4208240509033203    0.8346049785614014
     0.0000000000000000    0.0000000000000000   33.1766052246093750
 Ni  O  
  36  44
Cartesian
  5.6125235557556152  5.8105759620666504 21.6110897064208984
  1.1495493650436401  2.9687261581420898 21.8572273254394531
  9.8074016571044922  8.8199357986450195 21.4245262145996094
  7.9703369140625000  7.4102377891540527 22.7765407562255859
  3.6607520580291748  4.1652235984802246 20.3533439636230469
  7.4220695495605469  1.3566187620162964 21.7463912963867188
  3.1026451587677002  7.4062829017639160 22.1152439117431641
  7.7260222434997559  4.0574464797973633 21.0365905761718750
  3.6999633312225342  1.1915345191955566 21.0958175659179688
  5.9680614471435547  5.0941538810729980 18.8858985900878906
  1.7998547554016113  2.2174391746520996 19.2306308746337891
 10.1775302886962891  7.9909243583679199 18.6192359924316406
  7.8637146949768066  6.9106354713439941 20.0962257385253906
  4.0588979721069336  3.2643129825592041 17.6657409667968750
  8.0528669357299805  0.4136454761028290 19.0380744934082031
  3.8460752964019775  6.9669637680053711 19.5845489501953125
  8.1413946151733398  3.2798392772674561 18.2109546661376953
  3.9495856761932373  0.3783695101737976 18.4544677734375000
  6.3103895187377930  4.3266716003417969 16.1569766998291016
  2.1249048709869385  1.4301429986953735 16.4264659881591797
 10.5553226470947266  7.2034912109375000 15.8216609954833984
  8.2499046325683594  6.1410760879516602 17.3478374481201172
  4.4272570610046387  2.4533545970916748 14.9559087753295898
  4.2480196952819824  9.0421714782714844 16.0760231018066406
  4.1595382690429688  6.1569104194641113 16.8675842285156250
  8.4463081359863281  2.5101540088653564 15.4524784088134766
  8.3673038482666016  9.0069189071655273 16.5246429443359375
  6.6390423774719238  3.6101660728454590 13.4283742904663086
  2.4598371982574463  0.6009485125541687 13.6169195175170898
 10.5744800567626953  6.4519553184509277 13.1158285140991211
  8.5454978942871094  5.3632192611694336 14.5072364807128906
  4.3322906494140625  2.0146312713623047 12.3196039199829102
  4.6591520309448242  8.2293882369995117 13.4551420211791992
  4.4363427162170410  5.2552471160888672 14.1649742126464844
  1.0147399902343750  2.0110876560211182 11.8529434204101562
  8.4260606765747070  8.0638980865478516 13.7442293167114258
  1.6976288557052612  3.8343348503112793 20.2120437622070312
  5.5489020347595215  1.0236608982086182 21.4432716369628906
  9.6023349761962891  8.1056232452392578 23.2136707305908203
  5.7083368301391602  4.1795492172241211 20.5099391937255859
  1.7401967048645020  1.3629693984985352 20.9754676818847656
  7.4899353981018066  5.8791508674621582 21.9563179016113281
 11.6604738235473633  8.8164587020874023 21.7618846893310547
  7.5231122970581055  2.9770753383636475 22.7888793945312500
  7.9401278495788574  8.7259683609008789 21.2351150512695312
  3.6851811408996582  5.7648959159851074 21.6046543121337891
  5.8310375213623047  6.7194161415100098 19.8402824401855469
  1.9882327318191528  2.9972062110900879 17.4955177307128906
  5.9752879142761230  0.1373962163925171 18.8527641296386719
  9.9770469665527344  7.1994085311889648 20.3554229736328125
  6.1096148490905762  3.5110754966735840 17.8567943572998047
  1.9207587242126465  0.6369589567184448 18.1540184020996094
  7.8221287727355957  5.0914278030395508 19.1502056121826172
  3.6491100788116455  2.2593638896942139 19.4227848052978516
  3.8361420631408691  8.0174655914306641 17.8266029357910156
  8.1432676315307617  2.2069954872131348 20.0445346832275391
  8.3255548477172852  7.9877691268920898 18.3692760467529297
  4.1043415069580078  5.1295471191406250 18.6411590576171875
  6.1935582160949707  5.9097990989685059 17.1891860961914062
  2.3598232269287109  2.2215385437011719 14.6946821212768555
 10.4064331054687500  8.7839984893798828 16.8947601318359375
 10.3093481063842773  6.4238190650939941 17.5495815277099609
  6.4135413169860840  2.7014479637145996 15.1983146667480469
  6.3092722892761230  9.2835273742675781 16.1908645629882812
  8.1723117828369141  4.3294277191162109 16.3588676452636719
  3.9828665256500244  1.4033551216125488 16.6566486358642578
  4.1960015296936035  7.1614165306091309 15.0634040832519531
  8.4672794342041016  1.4330357313156128 17.2400875091552734
  8.7043771743774414  7.2139601707458496 15.5716629028320312
  4.4439926147460938  4.2912707328796387 15.9336833953857422
  6.4598197937011719  5.2412147521972656 14.5190544128417969
  2.7034659385681152  1.3148276805877686 11.8323926925659180
 10.9289808273315430  8.0577859878540039 14.1161127090454102
  2.4996221065521240  5.5864067077636719 13.8166265487670898
  6.5363273620605469  8.3972949981689453 13.5752925872802734
  8.5435924530029297  3.5415990352630615 13.5578241348266602
  4.3386445045471191  0.6043745279312134 13.7478857040405273
  0.6036374568939209  0.6951277256011963 13.3390398025512695
  8.7819013595581055  6.4436087608337402 12.7593050003051758
  4.7699623107910156  3.6561069488525391 12.9582996368408203
