Ni O 
 1.0000000000000000
     8.1986503601074219    0.0000000000000000    1.0289880037307739
     4.0591487884521484    9.4208240509033203    0.8346049785614014
     0.0000000000000000    0.0000000000000000   33.1766052246093750
 Ni  O  
  36  44
Cartesian
  5.6114616394042969  5.8880147933959961 21.6428775787353516
  1.4105418920516968  3.0094256401062012 21.9378604888916016
  9.8123817443847656  8.7666044235229492 21.3478946685791016
  7.5394411087036133  7.7198376655578613 22.8696556091308594
  3.6834824085235596  4.0561923980712891 20.4160976409912109
  7.6812124252319336  1.1776030063629150 21.7400684356689453
  3.4401164054870605  7.7198376655578613 22.3551616668701172
  7.7828073501586914  4.0561923980712891 20.9305934906005859
  3.5818874835968018  1.1776030063629150 21.2255744934082031
  5.9564189910888672  5.1029496192932129 18.8943691253662109
  1.7554988861083984  2.2243602275848389 19.1893196105957031
 10.1573352813720703  7.9815292358398438 18.5993862152099609
  7.8843984603881836  6.9347720146179199 20.1211147308349609
  4.0284352302551270  3.2711174488067627 17.6675891876220703
  8.0261697769165039  0.3925374746322632 18.9915618896484375
  3.7850732803344727  6.9347720146179199 19.6066207885742188
  8.1277599334716797  3.2711174488067627 18.1820850372314453
  3.9268443584442139  0.3925374746322632 18.4770679473876953
  6.3013801574707031  4.3178744316101074 16.1458301544189453
  2.1004641056060791  1.4392946958541870 16.4408130645751953
 10.5023002624511719  7.1964640617370605 15.8508796691894531
  8.2293634414672852  6.1497068405151367 17.3726081848144531
  4.3734006881713867  2.4860517978668213 14.9190835952758789
  4.2316293716430664  9.0282869338989258 16.0486373901367188
  4.1300387382507324  6.1497068405151367 16.8581142425537109
  8.4727258682250977  2.4860517978668213 15.4335775375366211
  8.3309545516967773  9.0282869338989258 16.5631313323974609
  6.6463370323181152  3.5328090190887451 13.3973217010498047
  2.4454171657562256  0.6542196869850159 13.6923036575317383
 10.8472576141357422  6.4113984107971191 13.1023397445678711
  8.5743169784545898  5.3646316528320312 14.6241006851196289
  4.7183575630187988  1.7009862661361694 12.1705427169799805
  4.5765867233276367  8.2432212829589844 13.3001298904418945
  4.4749917984008789  5.3646316528320312 14.1096067428588867
  8.8176822662353516  1.7009862661361694 12.6850366592407227
  8.6759119033813477  8.2432212829589844 13.8146238327026367
  9.8234987258911133  3.8020091056823730 21.2593231201171875
  5.6225824356079102  0.9234291911125183 21.5543060302734375
  9.5980758666992188  7.9740209579467773 23.0554199218750000
  5.7421126365661621  4.3103661537170410 20.6018619537353516
  1.5411924123764038  1.4317768812179565 20.8968429565429688
  7.4735474586486816  5.8880147933959961 21.8765830993652344
 11.6744670867919922  8.7666044235229492 21.5816001892089844
  7.7471060752868652  3.0094256401062012 22.7331428527832031
  7.9503045082092285  8.7666044235229492 21.1141910552978516
  3.7493844032287598  5.8880147933959961 21.4091739654541016
  5.8257684707641602  6.6805982589721680 19.9353523254394531
  1.9698052406311035  3.0169434547424316 17.4818267822265625
  5.9675350189208984  0.1383542269468307 18.8057651519775391
  9.9430284500122070  7.1889457702636719 20.3069114685058594
  6.0870738029479980  3.5252912044525146 17.8533535003662109
  1.8861577510833740  0.6467112898826599 18.1483364105224609
  7.8185043334960938  5.1029496192932129 19.1280746459960938
  3.6175844669342041  2.2243602275848389 19.4230232238769531
  3.8207705020904541  7.9815292358398438 17.8041038513183594
  8.0920715332031250  2.2243602275848389 19.9846038818359375
  8.2952575683593750  7.9815292358398438 18.3656826019287109
  4.0943417549133301  5.1029496192932129 18.6606655120849609
  6.1707253456115723  5.8955326080322266 17.1868457794189453
  2.3147704601287842  2.2318780422210693 14.7332878112792969
 10.3716411590576172  8.7741127014160156 16.8918609619140625
 10.2879934310913086  6.4038805961608887 17.5583724975585938
  6.4320306777954102  2.7402255535125732 15.1048469543457031
  6.2902636528015137  9.2824697494506836 16.2344341278076172
  8.1634578704833984  4.3178744316101074 16.3795337677001953
  3.9625415802001953  1.4392946958541870 16.6745166778564453
  4.1657276153564453  7.1964640617370605 15.0555953979492188
  8.4370288848876953  1.4392946958541870 17.2360954284667969
  8.6402149200439453  7.1964640617370605 15.6171751022338867
  4.4392943382263184  4.3178744316101074 15.9121246337890625
  6.5156865119934082  5.1104578971862793 14.4383373260498047
  2.6597235202789307  1.4468030929565430 11.9847793579101562
 10.7166061401367188  7.9890470504760742 14.1433553695678711
  2.4343006610870361  5.6188149452209473 13.7808761596679688
  6.6352167129516602  8.4973945617675781 13.4858932495117188
  8.5084142684936523  3.5328090190887451 13.6310253143310547
  4.3074946403503418  0.6542196869850159 13.9260072708129883
  0.5833315253257751  0.6542196869850159 13.4585990905761719
  8.9851799011230469  6.4113984107971191 12.8686351776123047
  4.7842516899108887  3.5328090190887451 13.1636171340942383
