Ti O 
 1.0000000000000000
     9.6070604324340820    0.0000000000000000    0.0000000000000000
     0.0000000000000000    5.1663699150085449   -8.9484138488769531
     0.0000000000000000    0.0000000000000000   62.6389007568359375
 Ti  O  
  56  24
Cartesian
  1.2072218656539917  0.8622441887855530 21.0883255004882812
  1.2070996761322021  3.4454884529113770 16.6142463684082031
  6.0315527915954590  0.8612270951271057 21.0650672912597656
  6.0314226150512695  3.4444167613983154 16.5909442901611328
  3.5755569934844971  1.8827688694000244 19.2957210540771484
  3.5756759643554688  4.4660291671752930 14.8214778900146484
  8.3998298645019531  1.9034485816955566 19.2849731445312500
  8.3999671936035156  4.4867663383483887 14.8107414245605469
  1.2665015459060669  0.8910511136054993 23.8683166503906250
  1.2665103673934937  3.4742751121520996 19.3940811157226562
  6.1179456710815430  0.7733412384986877 23.8864536285400391
  6.1179423332214355  3.3564422130584717 19.4122180938720703
  3.4890754222869873  1.6989644765853882 22.2830352783203125
  3.4890606403350830  4.2822141647338867 17.8088855743408203
  8.3405294418334961  1.7421859502792358 22.3941516876220703
  8.3405418395996094  4.3253712654113770 17.9199047088623047
  1.2346594333648682  0.8497238755226135 26.8574447631835938
  1.2346391677856445  3.4330487251281738 22.3833045959472656
  6.0705709457397461  0.8405372500419617 26.8672389984130859
  6.0705246925354004  3.4238462448120117 22.3930816650390625
  3.5364696979522705  1.7308772802352905 25.3251285552978516
  3.5365157127380371  4.3141713142395020 20.8510074615478516
  8.3723812103271484  1.7270135879516602 25.3379173278808594
  8.3723983764648438  4.3103246688842773 20.8638019561767578
  1.3010745048522949  0.8755639195442200 29.8604125976562500
  1.3010610342025757  3.4587857723236084 25.3861312866210938
  6.1045799255371094  0.8257219791412354 29.8316879272460938
  6.1045856475830078  3.4089522361755371 25.3574237823486328
  3.5024662017822266  1.7075684070587158 28.3043270111083984
  3.5024707317352295  4.2907733917236328 23.8300476074218750
  8.3060073852539062  1.7573852539062500 28.3330631256103516
  8.3059968948364258  4.3406124114990234 23.8587837219238281
  1.2670207023620605  0.8521936535835266 32.8394622802734375
  1.2670911550521851  3.4354341030120850 28.3653030395507812
  6.0382046699523926  0.8560946583747864 32.8267364501953125
  6.0382485389709473  3.4393048286437988 28.3525772094726562
  3.5688824653625488  1.7333877086639404 31.3071956634521484
  3.5688285827636719  4.3166270256042480 26.8329982757568359
  8.3400583267211914  1.7425129413604736 31.2974090576171875
  8.3399915695190430  4.3257508277893066 26.8232288360595703
  1.3144069910049438  0.8841249346733093 35.8815498352050781
  1.3144627809524536  3.4673981666564941 31.4074363708496094
  6.0701260566711426  0.8409765362739563 35.7705307006835938
  6.0701408386230469  3.4241499900817871 31.2964191436767578
  3.5369358062744141  1.6921430826187134 34.2963371276855469
  3.5369508266448975  4.2752652168273926 29.8221778869628906
  8.2926378250122070  1.8099106550216675 34.2782707214355469
  8.2927074432373047  4.3929672241210938 29.8040332794189453
  1.2278161048889160  0.7003830075263977 38.8690147399902344
  1.2279120683670044  3.2836701869964600 34.3946800231933594
  6.0106644630432129  0.6796754002571106 38.8796920776367188
  6.0108246803283691  3.2628772258758545 34.4054565429687500
  3.5963881015777588  1.7208715677261353 37.0763206481933594
  3.5962338447570801  4.3040475845336914 32.6021537780761719
  8.3792104721069336  1.7219868898391724 37.0995788574218750
  8.3790960311889648  4.3050966262817383 32.6255187988281250
  4.8035135269165039  0.0857268720865250 22.4204616546630859
  4.8035244941711426  2.6688311100006104 17.9463977813720703
 -0.0000016332002133 -0.0629120767116547 25.3175506591796875
 -0.0000015371296058  2.5202841758728027 20.8433475494384766
  4.8035459518432617 -0.0493032373487949 25.3254108428955078
  4.8035430908203125  2.5339598655700684 20.8512496948242188
  0.0000124891776068  0.0445229001343250 28.3624267578125000
 -0.0000151791546159  2.6277477741241455 23.8881435394287109
  4.8035192489624023  0.0166102405637503 28.3462867736816406
  4.8035378456115723  2.5997922420501709 23.8720855712890625
  0.0000001921412007  0.0294644795358181 31.3364562988281250
  0.0000029781886042  2.6126301288604736 26.8622398376464844
  4.8035311698913574 -0.0294267144054174 31.3024654388427734
  4.8035283088684082  2.5537440776824951 26.8282489776611328
  0.0000113363312266 -0.0166504867374897 34.2925872802734375
 -0.0000076856476880  2.5665326118469238 29.8183784484863281
  4.8035173416137695 -0.0444511361420155 34.2765159606933594
  4.8035469055175781  2.5386927127838135 29.8023834228515625
 -0.0000160437903105  0.0492136515676975 37.3134384155273438
 -0.0000128734600366  2.6323378086090088 32.8391990661621094
  4.8035297393798828  0.0629570260643959 37.3213768005371094
  4.8035311698913574  2.6462199687957764 32.8472213745117188
  0.0000360264748451 -0.0855618566274643 40.2184448242187500
 -0.0000133538133014  2.4976260662078857 35.7442245483398438
