Ti O 
 1.0000000000000000
     7.7495541572570801    0.0000000000000000   -4.4742069244384766
     2.5831849575042725    9.6070604324340820    7.4570121765136719
     0.0000000000000000    0.0000000000000000   44.7420730590820312
 Ti  O  
  54  24
Cartesian
  4.3053088188171387  1.2823311090469360 16.1568565368652344
  6.8884906768798828  1.2823311090469360 14.6654548645019531
  1.7221266031265259  1.2823311090469360 17.6482563018798828
  3.4442429542541504  3.5211987495422363 17.6482410430908203
  6.0274329185485840  3.5211987495422363 16.1568374633789062
  8.6106147766113281  3.5211987495422363 14.6654357910156250
  4.3053088188171387  1.2823311090469360 19.1396751403808594
  6.8884906768798828  1.2823311090469360 17.6482753753662109
  1.7221266031265259  1.2823311090469360 20.6310768127441406
  4.3053064346313477  6.0858612060546875 22.1224517822265625
  6.8884959220886230  6.0858612060546875 20.6310462951660156
  1.7221242189407349  6.0858612060546875 23.6138534545898438
  3.4442429542541504  3.5211987495422363 20.6310615539550781
  6.0274329185485840  3.5211987495422363 19.1396560668945312
  8.6106147766113281  3.5211987495422363 17.6482563018798828
  3.4442481994628906  8.3247289657592773 23.6138782501220703
  6.0274305343627930  8.3247289657592773 22.1224765777587891
  8.6106128692626953  8.3247289657592773 20.6310768127441406
  4.3053088188171387  1.2823311090469360 22.1224498748779297
  6.8884906768798828  1.2823311090469360 20.6310501098632812
  1.7221266031265259  1.2823311090469360 23.6138515472412109
  4.3053064346313477  6.0858612060546875 25.1052722930908203
  6.8884959220886230  6.0858612060546875 23.6138668060302734
  1.7221242189407349  6.0858612060546875 26.5966720581054688
  3.4442429542541504  3.5211987495422363 23.6138820648193359
  6.0274329185485840  3.5211987495422363 22.1224765777587891
  8.6106147766113281  3.5211987495422363 20.6310749053955078
  3.4442481994628906  8.3247289657592773 26.5966529846191406
  6.0274305343627930  8.3247289657592773 25.1052532196044922
  8.6106128692626953  8.3247289657592773 23.6138515472412109
  4.3053088188171387  1.2823311090469360 25.1052703857421875
  6.8884906768798828  1.2823311090469360 23.6138687133789062
  1.7221266031265259  1.2823311090469360 26.5966720581054688
  4.3053064346313477  6.0858612060546875 28.0880908966064453
  6.8884959220886230  6.0858612060546875 26.5966854095458984
  1.7221242189407349  6.0858612060546875 29.5794925689697266
  3.4442429542541504  3.5211987495422363 26.5966567993164062
  6.0274329185485840  3.5211987495422363 25.1052513122558594
  8.6106147766113281  3.5211987495422363 23.6138496398925781
  3.4442481994628906  8.3247289657592773 29.5794734954833984
  6.0274305343627930  8.3247289657592773 28.0880718231201172
  8.6106128692626953  8.3247289657592773 26.5966720581054688
  4.3053088188171387  1.2823311090469360 28.0880908966064453
  6.8884906768798828  1.2823311090469360 26.5966892242431641
  1.7221266031265259  1.2823311090469360 29.5794906616210938
  4.3053064346313477  6.0858612060546875 31.0708656311035156
  6.8884959220886230  6.0858612060546875 29.5794620513916016
  1.7221242189407349  6.0858612060546875 32.5622673034667969
  3.4442429542541504  3.5211987495422363 29.5794754028320312
  6.0274329185485840  3.5211987495422363 28.0880699157714844
  8.6106147766113281  3.5211987495422363 26.5966701507568359
  3.4442481994628906  8.3247289657592773 32.5622940063476562
  6.0274305343627930  8.3247289657592773 31.0708923339843750
  8.6106128692626953  8.3247289657592773 29.5794906616210938
  0.0000000000000000  0.0000000000000000 17.6482410430908203
  2.5831820964813232  0.0000000000000000 16.1568412780761719
  5.1663718223571777  0.0000000000000000 14.6654357910156250
  2.5831873416900635  4.8035302162170410 22.1224765777587891
  5.1663694381713867  4.8035302162170410 20.6310768127441406
  7.7495517730712891  4.8035302162170410 19.1396751403808594
  0.0000000000000000  0.0000000000000000 20.6310615539550781
  2.5831820964813232  0.0000000000000000 19.1396598815917969
  5.1663718223571777  0.0000000000000000 17.6482563018798828
  2.5831873416900635  4.8035302162170410 25.1052532196044922
  5.1663694381713867  4.8035302162170410 23.6138515472412109
  7.7495517730712891  4.8035302162170410 22.1224498748779297
  0.0000000000000000  0.0000000000000000 23.6138820648193359
  2.5831820964813232  0.0000000000000000 22.1224803924560547
  5.1663718223571777  0.0000000000000000 20.6310749053955078
  2.5831873416900635  4.8035302162170410 28.0880718231201172
  5.1663694381713867  4.8035302162170410 26.5966720581054688
  7.7495517730712891  4.8035302162170410 25.1052703857421875
  0.0000000000000000  0.0000000000000000 26.5966567993164062
  2.5831820964813232  0.0000000000000000 25.1052551269531250
  5.1663718223571777  0.0000000000000000 23.6138496398925781
  2.5831873416900635  4.8035302162170410 31.0708923339843750
  5.1663694381713867  4.8035302162170410 29.5794906616210938
  7.7495517730712891  4.8035302162170410 28.0880908966064453
