Ti O 
 1.0000000000000000
     7.7495541572570801    0.0000000000000000   -4.4742069244384766
     2.5831849575042725    9.6070604324340820    7.4570121765136719
     0.0000000000000000    0.0000000000000000   44.7420730590820312
 Ti  O  
  54  24
Cartesian
  4.3179726600646973  1.0891350507736206 16.1780681610107422
  6.9011473655700684  1.0891911983489990 14.6866064071655273
  1.7347414493560791  1.0890995264053345 17.6694126129150391
  3.4536302089691162  3.3675439357757568 17.6671524047851562
  6.0369396209716797  3.3675858974456787 16.1756992340087891
  8.6201496124267578  3.3676214218139648 14.6842098236083984
  4.3345031738281250  1.3251597881317139 19.1898593902587891
  6.9177937507629395  1.3249154090881348 17.6985721588134766
  1.7513692378997803  1.3251216411590576 20.6812229156494141
  4.3306956291198730  5.9398231506347656 22.1648197174072266
  6.9138813018798828  5.9398326873779297 20.6735019683837891
  1.7475019693374634  5.9398088455200195 23.6561908721923828
  3.4133620262145996  3.6475002765655518 20.5788898468017578
  5.9964947700500488  3.6475121974945068 19.0875129699707031
  8.5796747207641602  3.6475608348846436 17.5960617065429688
  3.4979414939880371  8.2929973602294922 23.7093734741210938
  6.0811185836791992  8.2930974960327148 22.2179889678955078
  8.6643476486206055  8.2930936813354492 20.7266044616699219
  4.3369393348693848  1.2597538232803345 22.1765022277832031
  6.9201884269714355  1.2597351074218750 20.6850433349609375
  1.7536785602569580  1.2597455978393555 23.6678543090820312
  4.3186368942260742  6.0838060379028320 25.1268100738525391
  6.9018530845642090  6.0838236808776855 23.6353206634521484
  1.7354224920272827  6.0838298797607422 26.6181259155273438
  3.4124662876129150  3.5432956218719482 23.5596523284912109
  5.9957218170166016  3.5433020591735840 22.0682182312011719
  8.5788564682006836  3.5432910919189453 20.5768890380859375
  3.4395203590393066  8.3531761169433594 26.5902366638183594
  6.0227189064025879  8.3531894683837891 25.0988597869873047
  8.6059150695800781  8.3531398773193359 23.6074752807617188
  4.3361873626708984  1.1557928323745728 25.1573066711425781
  6.9193530082702637  1.1558297872543335 23.6659660339355469
  1.7529892921447754  1.1558026075363159 26.6487979888916016
  4.3099193572998047  6.0575408935546875 28.0943946838378906
  6.8931298255920410  6.0575385093688965 26.6029338836669922
  1.7267889976501465  6.0575928688049316 29.5857486724853516
  3.4151039123535156  3.4784264564514160 26.5465908050537109
  5.9982438087463379  3.4783656597137451 25.0552196502685547
  8.5814046859741211  3.4785478115081787 23.5637073516845703
  3.4308571815490723  8.3269205093383789 29.5579261779785156
  6.0140104293823242  8.3269071578979492 28.0664901733398438
  8.5972967147827148  8.3268823623657227 26.5751266479492188
  4.2957916259765625  1.4360598325729370 28.0688877105712891
  6.8786764144897461  1.4361107349395752 26.5776081085205078
  1.7125095129013062  1.4361237287521362 29.5602188110351562
  4.2517352104187012  6.1176338195800781 30.9755725860595703
  6.8349680900573730  6.1176948547363281 29.4842090606689453
  1.6685670614242554  6.1176381111145020 32.4670562744140625
  3.4317858219146729  3.7147283554077148 29.5585498809814453
  6.0149435997009277  3.7147934436798096 28.0672359466552734
  8.5981359481811523  3.7147440910339355 26.5757827758789062
  3.4188296794891357  8.4709281921386719 32.5198440551757812
  6.0020146369934082  8.4708909988403320 31.0285396575927734
  8.5852785110473633  8.4709014892578125 29.5371208190917969
 -0.0902013704180717 -0.0001811891561374 17.4935417175292969
  2.4930951595306396 -0.0001896433677757 16.0020122528076172
  5.0763401985168457 -0.0001416080631316 14.5107536315917969
  2.5214309692382812  4.8912796974182129 22.0168762207031250
  5.1046290397644043  4.8912591934204102 20.5254631042480469
  7.6878094673156738  4.8912582397460938 19.0340480804443359
  0.0205944404006004  0.0088800936937332 20.6674652099609375
  2.6038095951080322  0.0087749920785427 19.1761264801025391
  5.1870069503784180  0.0088123641908169 17.6847152709960938
  2.5932126045227051  4.7834897041320801 25.1227817535400391
  5.1763710975646973  4.7834830284118652 23.6314144134521484
  7.7595610618591309  4.7835254669189453 22.1399765014648438
 -0.0099561614915729  0.0196468215435743 23.5963516235351562
  2.5731563568115234  0.0196412503719330 22.1049900054931641
  5.1563625335693359  0.0196239575743675 20.6135749816894531
  2.5623893737792969  4.7947492599487305 28.0513687133789062
  5.1456017494201660  4.7947602272033691 26.5599975585937500
  7.7287940979003906  4.7947850227355957 25.0685367584228516
  0.0617344416677952 -0.0880220904946327 26.7022056579589844
  2.6448698043823242 -0.0880679190158844 25.2108249664306641
  5.2280812263488770 -0.0880870372056961 23.7193794250488281
  2.6735148429870605  4.8040070533752441 31.2259998321533203
  5.2567358016967773  4.8040251731872559 29.7347240447998047
  7.8399548530578613  4.8039922714233398 28.2433032989501953
