Ti O 
 1.0000000000000000
     9.6070604324340820    0.0000000000000000    0.0000000000000000
     0.0000000000000000    5.1663699150085449   -8.9484138488769531
     0.0000000000000000    0.0000000000000000   62.6389007568359375
 Ti  O  
  56  20
Cartesian
  1.2649719715118408  0.8708494901657104 21.0863704681396484
  1.2648981809616089  3.4538295269012451 16.6122875213623047
  6.0683698654174805  0.8705355525016785 21.0863380432128906
  6.0684251785278320  3.4539620876312256 16.6121501922607422
  3.5387353897094727  1.9059305191040039 19.2930030822753906
  3.5387048721313477  4.4892024993896484 14.8191013336181641
  8.3420581817626953  1.9060608148574829 19.2933197021484375
  8.3421077728271484  4.4891772270202637 14.8190479278564453
  1.2651463747024536  0.8813640475273132 23.8671321868896484
  1.2649940252304077  3.4644310474395752 19.3929386138916016
  6.0685477256774902  0.8812811374664307 23.8672428131103516
  6.0685782432556152  3.4644021987915039 19.3927593231201172
  3.5384261608123779  1.7361106872558594 22.3863315582275391
  3.5384981632232666  4.3195462226867676 17.9120101928710938
  8.3420362472534180  1.7362512350082397 22.3862285614013672
  8.3419246673583984  4.3194704055786133 17.9121379852294922
  1.2493976354598999  0.8422892093658447 26.8525562286376953
  1.2493455410003662  3.4255030155181885 22.3782939910888672
  6.0528607368469238  0.8422420620918274 26.8524799346923828
  6.0529088973999023  3.4254989624023438 22.3783454895019531
  3.5541770458221436  1.7189158201217651 25.3339786529541016
  3.5541360378265381  4.3022584915161133 20.8597202301025391
  8.3576555252075195  1.7190095186233521 25.3339576721191406
  8.3577022552490234  4.3022036552429199 20.8597240447998047
  1.3016860485076904  0.8506287336349487 29.8462619781494141
  1.3017574548721313  3.4337971210479736 25.3720932006835938
  6.1052269935607910  0.8505544662475586 29.8462085723876953
  6.1053042411804199  3.4337122440338135 25.3720798492431641
  3.5017681121826172  1.7326334714889526 28.3184165954589844
  3.5018417835235596  4.3158221244812012 23.8442611694335938
  8.3053197860717773  1.7326310873031616 28.3184566497802734
  8.3053750991821289  4.3158493041992188 23.8442630767822266
  1.2492588758468628  0.8642948865890503 32.8307723999023438
  1.2493931055068970  3.4473176002502441 28.3565044403076172
  6.0528731346130371  0.8642866611480713 32.8307991027832031
  6.0529732704162598  3.4473259449005127 28.3565044403076172
  3.5542058944702148  1.7410280704498291 31.3121967315673828
  3.5541188716888428  4.3240838050842285 26.8379440307617188
  8.3578147888183594  1.7409758567810059 31.3122119903564453
  8.3576831817626953  4.3240594863891602 26.8379421234130859
  1.2650456428527832  0.8469130396842957 35.7783393859863281
  1.2651191949844360  3.4302172660827637 31.3042354583740234
  6.0686297416687012  0.8468824028968811 35.7782936096191406
  6.0686717033386230  3.4301755428314209 31.3042392730712891
  3.5384066104888916  1.7020084857940674 34.2976036071777344
  3.5384457111358643  4.2849884033203125 29.8233776092529297
  8.3419485092163086  1.7019939422607422 34.2976264953613281
  8.3420228958129883  4.2850294113159180 29.8233623504638672
  1.2649018764495850  0.6771618127822876 38.8713912963867188
  1.2647231817245483  3.2603247165679932 34.3974609375000000
  6.0685901641845703  0.6770325303077698 38.8713645935058594
  6.0684156417846680  3.2601659297943115 34.3973350524902344
  3.5384039878845215  1.7122625112533569 37.0783500671386719
  3.5385990142822266  4.2955842018127441 32.6039733886718750
  8.3421735763549805  1.7123966217041016 37.0783729553222656
  8.3423366546630859  4.2957959175109863 32.6039886474609375
 -0.0000093188482424 -0.0841494724154472 25.3053226470947266
  0.0000042271062739  2.4990828037261963 20.8311195373535156
  4.8035211563110352 -0.0840321928262711 25.3053436279296875
  4.8035383224487305  2.4990718364715576 20.8310813903808594
 -0.0000189259080798  0.0431302525103092 28.3615322113037109
  0.0000019214119220  2.6263039112091064 23.8873901367187500
  4.8035101890563965  0.0432133786380291 28.3615417480468750
  4.8035731315612793  2.6263360977172852 23.8874778747558594
  0.0000004803529805  0.0000071295908128 31.3194465637207031
  0.0000083581426225  2.5831339359283447 26.8452339172363281
  4.8035354614257812  0.0000551768316654 31.3194732666015625
  4.8035387992858887  2.5832061767578125 26.8452720642089844
  0.0000004803529805 -0.0431890450417995 34.2773780822753906
  0.0000140263073263  2.5400664806365967 29.8030223846435547
  4.8035402297973633 -0.0431189872324467 34.2774162292480469
  4.8035140037536621  2.5401477813720703 29.8030529022216797
  0.0000058603063735  0.0839820280671120 37.3334808349609375
 -0.0000027860473892  2.6673328876495361 32.8593635559082031
  4.8035359382629395  0.0840464532375336 37.3335494995117188
  4.8035273551940918  2.6673233509063721 32.8593788146972656
