Ti O 
 1.0000000000000000
     9.6070604324340820    0.0000000000000000    0.0000000000000000
     0.0000000000000000    5.1663699150085449   -8.9484138488769531
     0.0000000000000000    0.0000000000000000   62.6389007568359375
 Ti  O  
  56  20
Cartesian
  1.2823311090469360  0.8610633611679077 20.8796405792236328
  1.2823311090469360  3.4442484378814697 16.4054336547851562
  6.0858612060546875  0.8610633611679077 20.8796405792236328
  6.0858612060546875  3.4442484378814697 16.4054336547851562
  3.5211987495422363  1.7221215963363647 19.3882427215576172
  3.5211987495422363  4.3053064346313477 14.9140367507934570
  8.3247289657592773  1.7221215963363647 19.3882427215576172
  8.3247289657592773  4.3053064346313477 14.9140367507934570
  1.2823311090469360  0.8610633611679077 23.8624420166015625
  1.2823311090469360  3.4442484378814697 19.3882350921630859
  6.0858612060546875  0.8610633611679077 23.8624420166015625
  6.0858612060546875  3.4442484378814697 19.3882350921630859
  3.5211987495422363  1.7221215963363647 22.3710460662841797
  3.5211987495422363  4.3053064346313477 17.8968372344970703
  8.3247289657592773  1.7221215963363647 22.3710460662841797
  8.3247289657592773  4.3053064346313477 17.8968372344970703
  1.2823311090469360  0.8610633611679077 26.8452434539794922
  1.2823311090469360  3.4442484378814697 22.3710365295410156
  6.0858612060546875  0.8610633611679077 26.8452434539794922
  6.0858612060546875  3.4442484378814697 22.3710365295410156
  3.5211987495422363  1.7221215963363647 25.3538475036621094
  3.5211987495422363  4.3053064346313477 20.8796405792236328
  8.3247289657592773  1.7221215963363647 25.3538475036621094
  8.3247289657592773  4.3053064346313477 20.8796405792236328
  1.2823311090469360  0.8610633611679077 29.8280448913574219
  1.2823311090469360  3.4442484378814697 25.3538379669189453
  6.0858612060546875  0.8610633611679077 29.8280448913574219
  6.0858612060546875  3.4442484378814697 25.3538379669189453
  3.5211987495422363  1.7221215963363647 28.3366489410400391
  3.5211987495422363  4.3053064346313477 23.8624420166015625
  8.3247289657592773  1.7221215963363647 28.3366489410400391
  8.3247289657592773  4.3053064346313477 23.8624420166015625
  1.2823311090469360  0.8610633611679077 32.8108482360839844
  1.2823311090469360  3.4442484378814697 28.3366394042968750
  6.0858612060546875  0.8610633611679077 32.8108482360839844
  6.0858612060546875  3.4442484378814697 28.3366394042968750
  3.5211987495422363  1.7221215963363647 31.3194503784179688
  3.5211987495422363  4.3053064346313477 26.8452434539794922
  8.3247289657592773  1.7221215963363647 31.3194503784179688
  8.3247289657592773  4.3053064346313477 26.8452434539794922
  1.2823311090469360  0.8610633611679077 35.7936477661132812
  1.2823311090469360  3.4442484378814697 31.3194427490234375
  6.0858612060546875  0.8610633611679077 35.7936477661132812
  6.0858612060546875  3.4442484378814697 31.3194427490234375
  3.5211987495422363  1.7221215963363647 34.3022537231445312
  3.5211987495422363  4.3053064346313477 29.8280448913574219
  8.3247289657592773  1.7221215963363647 34.3022537231445312
  8.3247289657592773  4.3053064346313477 29.8280448913574219
  1.2823311090469360  0.8610633611679077 38.7764511108398438
  1.2823311090469360  3.4442484378814697 34.3022422790527344
  6.0858612060546875  0.8610633611679077 38.7764511108398438
  6.0858612060546875  3.4442484378814697 34.3022422790527344
  3.5211987495422363  1.7221215963363647 37.2850532531738281
  3.5211987495422363  4.3053064346313477 32.8108482360839844
  8.3247289657592773  1.7221215963363647 37.2850532531738281
  8.3247289657592773  4.3053064346313477 32.8108482360839844
  0.0000000000000000  0.0000000000000000 25.3538475036621094
  0.0000000000000000  2.5831849575042725 20.8796405792236328
  4.8035302162170410  0.0000000000000000 25.3538475036621094
  4.8035302162170410  2.5831849575042725 20.8796405792236328
  0.0000000000000000  0.0000000000000000 28.3366489410400391
  0.0000000000000000  2.5831849575042725 23.8624420166015625
  4.8035302162170410  0.0000000000000000 28.3366489410400391
  4.8035302162170410  2.5831849575042725 23.8624420166015625
  0.0000000000000000  0.0000000000000000 31.3194503784179688
  0.0000000000000000  2.5831849575042725 26.8452434539794922
  4.8035302162170410  0.0000000000000000 31.3194503784179688
  4.8035302162170410  2.5831849575042725 26.8452434539794922
  0.0000000000000000  0.0000000000000000 34.3022537231445312
  0.0000000000000000  2.5831849575042725 29.8280448913574219
  4.8035302162170410  0.0000000000000000 34.3022537231445312
  4.8035302162170410  2.5831849575042725 29.8280448913574219
  0.0000000000000000  0.0000000000000000 37.2850532531738281
  0.0000000000000000  2.5831849575042725 32.8108482360839844
  4.8035302162170410  0.0000000000000000 37.2850532531738281
  4.8035302162170410  2.5831849575042725 32.8108482360839844
