Ti O 
 1.0000000000000000
     7.7495541572570801    0.0000000000000000   -4.4742069244384766
     2.5831849575042725    9.6070604324340820    7.4570121765136719
     0.0000000000000000    0.0000000000000000   44.7420730590820312
 Ti  O  
  54  26
Cartesian
  4.2887592315673828  1.0723556280136108 16.1753330230712891
  6.9025316238403320  1.0880213975906372 14.6905078887939453
  1.7438286542892456  1.0743277072906494 17.6438694000244141
  3.4348421096801758  3.3547425270080566 17.6390857696533203
  6.0184559822082520  3.3823440074920654 16.1934871673583984
  0.8933759331703186  3.3843185901641846 19.1504650115966797
  4.3301858901977539  1.3210872411727905 19.1815185546875000
  6.9130110740661621  1.3218345642089844 17.7038326263427734
  1.7588360309600830  1.3241109848022461 20.6788597106933594
  4.3350572586059570  5.9345440864562988 22.1594047546386719
  6.9057307243347168  5.9346857070922852 20.6714878082275391
  1.7383780479431152  5.9281587600708008 23.6402454376220703
  3.4346327781677246  3.6239838600158691 20.5932922363281250
  5.9977993965148926  3.6235587596893311 19.1143264770507812
  8.5540504455566406  3.6861703395843506 17.5520610809326172
  3.4958670139312744  8.2831192016601562 23.7108058929443359
  6.0834956169128418  8.2812366485595703 22.2151203155517578
  8.6659097671508789  8.2916755676269531 20.7318115234375000
  4.3503370285034180  1.2565886974334717 22.1856250762939453
  6.9222421646118164  1.2557927370071411 20.7015495300292969
  1.7458322048187256  1.2707513570785522 23.6552219390869141
  4.3115758895874023  6.0827546119689941 25.1256675720214844
  6.9011878967285156  6.0806303024291992 23.6298427581787109
  1.7363286018371582  6.0853395462036133 26.6123695373535156
  3.3991508483886719  3.5468943119049072 23.5506572723388672
  6.0036611557006836  3.5327525138854980 22.0810832977294922
  8.5768461227416992  3.5476732254028320 20.5605297088623047
  3.4427502155303955  8.3517932891845703 26.5989246368408203
  6.0242958068847656  8.3392419815063477 25.0997753143310547
  8.6088590621948242  8.3492536544799805 23.6133117675781250
  4.3149113655090332  1.1795350313186646 25.1429843902587891
  6.9450283050537109  1.1174099445343018 23.7099475860595703
  1.7517611980438232  1.1799678802490234 26.6219387054443359
  4.3084254264831543  6.0713696479797363 28.0936126708984375
  6.8899765014648438  6.0587668418884277 26.5943832397460938
  1.7238751649856567  6.0613923072814941 29.5800266265869141
  3.4193675518035889  3.4823794364929199 26.5548038482666016
  5.9906826019287109  3.4793493747711182 25.0574874877929688
  8.5860319137573242  3.4816629886627197 23.5583095550537109
  3.4314939975738525  8.3300371170043945 29.5634365081787109
  6.0211172103881836  8.3278598785400391 28.0676536560058594
  8.5963897705078125  8.3252744674682617 26.5809173583984375
  4.3147230148315430  1.4488137960433960 28.0971984863281250
  6.8561367988586426  1.4193058013916016 26.5859260559082031
  1.7312012910842896  1.4212447404861450 29.5427627563476562
  4.2492637634277344  6.1294026374816895 30.9782352447509766
  6.8369245529174805  6.1275196075439453 29.4825401306152344
  1.6668092012405396  6.1189146041870117 32.4615783691406250
  3.4607074260711670  3.7313311100006104 29.5610218048095703
  6.0057659149169922  3.7293517589569092 28.0924415588378906
  8.5965785980224609  3.7156627178192139 26.5716094970703125
  3.4270334243774414  8.4758520126342773 32.5218925476074219
  5.9976921081542969  8.4760055541992188 31.0339488983154297
  8.5944213867187500  8.4823932647705078 29.5531158447265625
  7.5803909301757812  4.4313549995422363 15.8687696456909180
 -0.0888140499591827 -0.0103089520707726 17.4981079101562500
  2.4787447452545166 -0.0100710811093450 15.9790830612182617
  5.0782957077026367 -0.0059749186038971 14.5120677947998047
  2.5337851047515869  4.8943595886230469 22.0051746368408203
  5.1075754165649414  4.8767108917236328 20.5309429168701172
  7.6718230247497559  4.8942937850952148 19.0372638702392578
  0.0219313148409128  0.0123654389753938 20.6706314086914062
  2.6045038700103760  0.0047129355370998 19.1747989654541016
  5.1853871345520020  0.0018711671000347 17.6852378845214844
  2.5900330543518066  4.7807040214538574 25.1172771453857422
  5.1718101501464844  4.7810883522033691 23.6340274810791016
  7.7633457183837891  4.7818455696105957 22.1357078552246094
 -0.0138201406225562  0.0216226093471050 23.6006050109863281
  2.5776863098144531  0.0223822407424450 22.1022911071777344
  5.1595530509948730  0.0227577798068523 20.6190814971923828
  2.5641815662384033  4.8016567230224609 28.0511398315429688
  5.1450557708740234  4.7988023757934570 26.5615863800048828
  7.7276725769042969  4.7912335395812988 25.0657196044921875
  0.0777813941240311 -0.0908188074827194 26.6990814208984375
  2.6419916152954102 -0.0732113718986511 25.2054023742675781
  5.2157897949218750 -0.0908620357513428 23.7311439514160156
  2.6712672710418701  4.8095359802246094 31.2242984771728516
  5.2708129882812500  4.8136339187622070 29.7572708129882812
  7.8384079933166504  4.8138232231140137 28.2382678985595703
  0.1692745834589005  0.3718663454055786 29.8677043914794922
