Ti O 
 1.0000000000000000
     7.7495541572570801    0.0000000000000000   -4.4742069244384766
     2.5831849575042725    9.6070604324340820    7.4570121765136719
     0.0000000000000000    0.0000000000000000   44.7420730590820312
 Ti  O  
  54  26
Cartesian
  4.3121004104614258  1.2596724033355713 16.1815853118896484
  6.9045982360839844  1.2727998495101929 14.6946067810058594
  1.7403141260147095  1.2600326538085938 17.6657581329345703
  3.4460258483886719  3.4834227561950684 17.6519336700439453
  6.0968117713928223  3.5531234741210938 16.1790370941162109
  8.5958261489868164  3.5535476207733154 14.7370080947875977
  4.3062520027160645  1.2956357002258301 19.1403656005859375
  6.8868374824523926  1.2915327548980713 17.6485309600830078
  1.7234641313552856  1.2917306423187256 20.6295890808105469
  4.3164477348327637  6.0548124313354492 22.1406173706054688
  6.8995485305786133  6.0545077323913574 20.6492195129394531
  1.7272671461105347  6.0529565811157227 23.6240406036376953
  3.4485874176025391  3.5451359748840332 20.6333904266357422
  6.0270061492919922  3.5451412200927734 19.1444816589355469
  8.5884275436401367  3.5983996391296387 17.6102542877197266
  3.4599261283874512  8.3242263793945312 23.6403732299804688
  6.0422735214233398  8.3236303329467773 22.1486949920654297
  8.6256294250488281  8.3235702514648438 20.6563301086425781
  4.3091316223144531  1.2791396379470825 22.1215915679931641
  6.8861389160156250  1.2791460752487183 20.6336536407470703
  1.7234932184219360  1.2734351158142090 23.6159629821777344
  4.3039431571960449  6.0903725624084473 25.1032505035400391
  6.8873033523559570  6.0911631584167480 23.6108016967773438
  1.7212258577346802  6.0896868705749512 26.5945911407470703
  3.4402294158935547  3.5239338874816895 23.6147327423095703
  6.0260801315307617  3.5297930240631104 22.1202507019042969
  8.6129999160766602  3.5239930152893066 20.6283168792724609
  3.4423673152923584  8.3310317993164062 26.5941410064697266
  6.0256967544555664  8.3305864334106445 25.1025791168212891
  8.6086893081665039  8.3307104110717773 23.6110324859619141
  4.3011698722839355  1.2580977678298950 25.1032257080078125
  6.9107313156127930  1.2049471139907837 23.6520977020263672
  1.7226766347885132  1.2581826448440552 26.5919952392578125
  4.3073353767395020  6.0800390243530273 28.0911216735839844
  6.8904733657836914  6.0796289443969727 26.5997657775878906
  1.7243467569351196  6.0801434516906738 29.5826282501220703
  3.4434244632720947  3.5078079700469971 26.5961227416992188
  6.0261950492858887  3.5113227367401123 25.1072654724121094
  8.6124944686889648  3.5117766857147217 23.6136970520019531
  3.4456214904785156  8.3194646835327148 29.5826816558837891
  6.0288109779357910  8.3202095031738281 28.0903587341308594
  8.6115770339965820  8.3210754394531250 26.5987663269042969
  4.3038887977600098  1.3202333450317383 28.0842247009277344
  6.9026217460632324  1.2508480548858643 26.5253677368164062
  1.6529600620269775  1.2508745193481445 29.5570201873779297
  4.2906126976013184  6.0876269340515137 31.0443782806396484
  6.8723754882812500  6.0869822502136230 29.5528354644775391
  1.7070968151092529  6.0876235961914062 32.5368309020996094
  3.4375987052917480  3.5437328815460205 29.5546703338623047
  6.0092997550964355  3.5430109500885010 28.0703105926513672
  8.5942029953002930  3.5299386978149414 26.5677433013916016
  3.4332463741302490  8.3557119369506836 32.5438842773437500
  6.0161280632019043  8.3551988601684570 31.0524253845214844
  8.6051616668701172  8.3572568893432617 29.5691223144531250
  7.7210249900817871  4.6529555320739746 16.1078338623046875
 -0.0194730795919895  0.0049624308012426 17.6145534515380859
  2.5621588230133057  0.0072879157960415 16.1210784912109375
  5.1467537879943848  0.0053080925717950 14.6315202713012695
  2.5907566547393799  4.8054161071777344 22.1113090515136719
  5.1561756134033203  4.8073554039001465 20.6134281158447266
  7.7361416816711426  4.8054213523864746 19.1406250000000000
 -0.0063166613690555  0.0093925343826413 20.6201362609863281
  2.5767126083374023  0.0091700349003077 19.1294689178466797
  5.1606969833374023  0.0089435968548059 17.6381225585937500
  2.5785462856292725  4.8177947998046875 25.0972785949707031
  5.1616706848144531  4.8184862136840820 23.6064033508300781
  7.7451162338256836  4.8187537193298340 22.1147689819335938
  0.0043469569645822 -0.0151599403470755 23.6214923858642578
  2.5878424644470215 -0.0149091007187963 22.1298065185546875
  5.1709642410278320 -0.0141617674380541 20.6389350891113281
  2.5887730121612549  4.7945985794067383 28.0980682373046875
  5.1727485656738281  4.7943601608276367 26.6067066192626953
  7.7557754516601562  4.7941846847534180 25.1160068511962891
  0.0133234467357397 -0.0017274455167353 26.5956211090087891
  2.5932841300964355 -0.0036076430696994 25.1227951049804688
  5.1587843894958496 -0.0017126506427303 23.6248645782470703
  2.6027495861053467  4.7983212471008301 31.1047134399414062
  5.1873745918273926  4.7964262962341309 29.6152458190917969
  7.7690196037292480  4.7987112998962402 28.1217193603515625
  0.0285102277994156  0.1507431268692017 29.6285648345947266
