Ti O 
 1.0000000000000000
     9.6070604324340820    0.0000000000000000    0.0000000000000000
     0.0000000000000000    5.1663699150085449   -8.9484138488769531
     0.0000000000000000    0.0000000000000000   62.6389007568359375
 Ti  O  
  56  28
Cartesian
  1.1659270524978638  0.8631467223167419 21.0768070220947266
  1.1648263931274414  3.4540548324584961 16.6071109771728516
  6.0102863311767578  0.8957249522209167 21.0484180450439453
  5.9885821342468262  3.4644176959991455 16.5761280059814453
  3.5294740200042725  1.9081289768218994 19.2884006500244141
  3.5548737049102783  4.4845499992370605 14.8103275299072266
  8.3668813705444336  1.9139587879180908 19.2656593322753906
  8.3827571868896484  4.4949288368225098 14.7879753112792969
  1.2373465299606323  0.8978920578956604 23.8496685028076172
  1.2269835472106934  3.4829578399658203 19.3766651153564453
  6.0979518890380859  0.7777750492095947 23.8783836364746094
  6.0885372161865234  3.3743762969970703 19.3953800201416016
  3.4490690231323242  1.7138881683349609 22.2556552886962891
  3.4468948841094971  4.3057289123535156 17.8009529113769531
  8.3128099441528320  1.7466224431991577 22.3815479278564453
  8.3097600936889648  4.3304662704467773 17.8991279602050781
  1.2065430879592896  0.8667587637901306 26.8364124298095703
  1.2032099962234497  3.4302434921264648 22.3539524078369141
  6.0300698280334473  0.8519783020019531 26.8566856384277344
  6.0304250717163086  3.4461364746093750 22.3743247985839844
  3.5099811553955078  1.7426286935806274 25.3131008148193359
  3.5081167221069336  4.3395357131958008 20.8390102386474609
  8.3496875762939453  1.7276835441589355 25.3250083923339844
  8.3321409225463867  4.3092522621154785 20.8435306549072266
  1.2639422416687012  0.8910688161849976 29.8330249786376953
  1.2689570188522339  3.4603683948516846 25.3519191741943359
  6.0782217979431152  0.8525483608245850 29.8224391937255859
  6.0723257064819336  3.4094400405883789 25.3351821899414062
  3.4625227451324463  1.7549610137939453 28.3169288635253906
  3.4729330539703369  4.2886023521423340 23.8066844940185547
  8.2806634902954102  1.7538758516311646 28.3095359802246094
  8.2711887359619141  4.3357548713684082 23.8499794006347656
  1.2252825498580933  0.8530254364013672 32.7862434387207031
  1.2328587770462036  3.4766016006469727 28.3466072082519531
  6.0284571647644043  0.8791740536689758 32.8173255920410156
  6.0037746429443359  3.4136297702789307 28.3362140655517578
  3.5129277706146240  1.7545561790466309 31.2993011474609375
  3.5348861217498779  4.3257322311401367 26.8309898376464844
  8.3469753265380859  1.7263203859329224 31.2739315032958984
  8.2778892517089844  4.3363919258117676 26.8232383728027344
  1.2614684104919434  0.8587098717689514 35.8014564514160156
  1.2779132127761841  3.5340063571929932 31.3658237457275391
  6.0635075569152832  0.8379706740379333 35.7595024108886719
  6.1157941818237305  3.4380912780761719 31.3612728118896484
  3.4635186195373535  1.6440125703811646 34.2317390441894531
  3.4886870384216309  4.4732480049133301 29.8347263336181641
  8.2894039154052734  1.8260433673858643 34.2616691589355469
  8.2608251571655273  4.3410181999206543 29.7722568511962891
  1.1008466482162476  1.0067821741104126 38.8056869506835938
  1.1729308366775513  3.2786946296691895 34.3283691406250000
  5.9909195899963379  0.6719332337379456 38.8033103942871094
  5.8620524406433105  3.4249532222747803 34.5081481933593750
  3.4825744628906250  1.7433135509490967 37.0362739562988281
  3.8719341754913330  4.4187059402465820 32.8905715942382812
  8.4960536956787109  1.8867144584655762 37.2457923889160156
  8.4437160491943359  4.2893991470336914 32.6101760864257812
  4.7759237289428711  0.1319874227046967 22.4093608856201172
  4.7651052474975586  2.7061810493469238 17.9424381256103516
  9.5803089141845703  5.1246280670166016 16.3576011657714844
  9.5713806152343750  2.5398540496826172 20.8246688842773438
  4.7689423561096191  5.1486434936523438 16.3695278167724609
  4.7702031135559082  2.5716097354888916 20.8356533050537109
  9.5754842758178711  0.0632116198539734 28.3437213897705078
  9.5765256881713867  2.6470606327056885 23.8725242614746094
  4.7614727020263672  0.0633585005998611 28.3393268585205078
  4.7744116783142090  2.6224341392517090 23.8552761077880859
  9.5766201019287109  0.0237472709268332 31.3047847747802734
  9.5783157348632812  2.6445310115814209 26.8469238281250000
  4.7732787132263184  0.0256348568946123 31.2971687316894531
  4.7635893821716309  2.5844974517822266 26.8199691772460938
  9.5575113296508789  0.0095865614712238 34.2847175598144531
  9.5996341705322266  2.6205382347106934 29.8045005798339844
  4.7773203849792480  5.1491580009460449 25.3169651031494141
  4.7587676048278809  2.6305360794067383 29.8522071838378906
  9.5343809127807617  0.0975387915968895 37.2870407104492188
  9.6026134490966797  2.6189160346984863 32.7900848388671875
  4.7877755165100098  0.1045396402478218 37.2787895202636719
  4.8100829124450684  2.6217255592346191 32.8502311706542969
  9.5601749420166016  5.1179189682006836 31.1993274688720703
 -0.0218127332627773  2.5032198429107666 35.7168350219726562
  9.4353027343750000  2.4371085166931152 38.7173500061035156
  2.9406809806823730  1.4897934198379517 38.8357963562011719
  4.8317766189575195 -0.0499615892767906 40.2534523010253906
  4.8709564208984375 -0.1640508472919464 43.2944908142089844
