Ti O 
 1.0000000000000000
     9.6070604324340820    0.0000000000000000    0.0000000000000000
     0.0000000000000000    5.1663699150085449   -8.9484138488769531
     0.0000000000000000    0.0000000000000000   62.6389007568359375
 Ti  O  
  56  28
Cartesian
  1.2772300243377686  0.8743331432342529 20.8979835510253906
  1.2772264480590820  3.4577088356018066 16.4234294891357422
  6.0701713562011719  0.8617613911628723 20.9149990081787109
  6.0704936981201172  3.4448287487030029 16.4405975341796875
  3.5366556644439697  1.7525432109832764 19.3720283508300781
  3.5365307331085205  4.3357172012329102 14.8978595733642578
  8.3299770355224609  1.7438817024230957 19.3915233612060547
  8.3297052383422852  4.3273453712463379 14.9173307418823242
  1.2828971147537231  0.8566886782646179 23.8586616516113281
  1.2825859785079956  3.4396870136260986 19.3849391937255859
  6.0817031860351562  0.8377826213836670 23.8449478149414062
  6.0814599990844727  3.4216682910919189 19.3709735870361328
  3.5252587795257568  1.6950707435607910 22.3601245880126953
  3.5255100727081299  4.2780971527099609 17.8867149353027344
  8.3244028091430664  1.7163645029067993 22.3698692321777344
  8.3243274688720703  4.2997345924377441 17.8954010009765625
  1.2756497859954834  0.8554800748825073 26.8468132019042969
  1.2751405239105225  3.4384539127349854 22.3733367919921875
  6.0866537094116211  0.8592358231544495 26.8462562561035156
  6.0872387886047363  3.4425122737884521 22.3720321655273438
  3.5201306343078613  1.7214027643203735 25.3525543212890625
  3.5200536251068115  4.3045439720153809 20.8783855438232422
  8.3319082260131836  1.7205555438995361 25.3485832214355469
  8.3314971923828125  4.3037939071655273 20.8745403289794922
  1.2818996906280518  0.8609910011291504 29.8273353576660156
  1.2823077440261841  3.4436216354370117 25.3522548675537109
  6.0876975059509277  0.8621858358383179 29.8284168243408203
  6.0863938331604004  3.4436516761779785 25.3524017333984375
  3.5191531181335449  1.7210011482238770 28.3373546600341797
  3.5205216407775879  4.3037724494934082 23.8638267517089844
  8.3251142501831055  1.7212795019149780 28.3374385833740234
  8.3249073028564453  4.3030052185058594 23.8637237548828125
  1.2843135595321655  0.8619511127471924 32.8113822937011719
  1.2841638326644897  3.4393656253814697 28.3382225036621094
  6.0809869766235352  0.8602962493896484 32.8145523071289062
  6.0801982879638672  3.4413380622863770 28.3382663726806641
  3.5237343311309814  1.7174762487411499 31.3167037963867188
  3.5273740291595459  4.3097147941589355 26.8453922271728516
  8.3276729583740234  1.7196677923202515 31.3176879882812500
  8.3192710876464844  4.3053202629089355 26.8412208557128906
  1.2799190282821655  0.8862195014953613 35.8000297546386719
  1.2766115665435791  3.4713633060455322 31.3277969360351562
  6.0794620513916016  0.8630329370498657 35.7934303283691406
  6.0987563133239746  3.4402213096618652 31.3194618225097656
  3.5199112892150879  1.7232000827789307 34.3096351623535156
  3.5188183784484863  4.3165888786315918 29.8313026428222656
  8.3280496597290039  1.7455801963806152 34.3228912353515625
  8.3274412155151367  4.3234987258911133 29.8498401641845703
  1.2502387762069702  0.8766632080078125 38.8105239868164062
  1.2627738714218140  3.4095845222473145 34.3190383911132812
  6.0805258750915527  0.8399990200996399 38.7626380920410156
  6.0871419906616211  3.4173624515533447 34.3013610839843750
  3.5254037380218506  1.7035015821456909 37.2589874267578125
  3.5212264060974121  4.2886810302734375 32.7960319519042969
  8.3697462081909180  1.7398533821105957 37.2866210937500000
  8.3421831130981445  4.2986741065979004 32.7735786437988281
  4.8037419319152832  0.0189251359552145 22.3810634613037109
  4.8034501075744629  2.6016874313354492 17.9064006805419922
  0.0001091361991712 -0.0117654781788588 25.3461170196533203
 -0.0000052838831834  2.5714249610900879 20.8716430664062500
  4.8034296035766602 -0.0113809965550900 25.3463268280029297
  4.8035173416137695  2.5720524787902832 20.8720664978027344
  0.0000477470894111  0.0028080770280212 28.3373966217041016
 -0.0001933901221491  2.5860068798065186 23.8627719879150391
  4.8033261299133301  0.0037496997974813 28.3375072479248047
  4.8036646842956543  2.5874302387237549 23.8639850616455078
 -0.0001327695645159  0.0030172117985785 31.3207206726074219
  0.0004842919006478  2.5874290466308594 26.8464374542236328
  4.8039693832397461  0.0001138667939813 31.3184185028076172
  4.8035507202148438  2.5828404426574707 26.8440036773681641
 -0.0000841578439577 -0.0003611292631831 34.3009834289550781
 -0.0006383891450241  2.5834681987762451 29.8269996643066406
  4.8035178184509277  0.0011642414610833 34.3014831542968750
  4.8038311004638672  2.5828719139099121 29.8289909362792969
 -0.0017597251571715  0.0160969104617834 37.2920722961425781
 -0.0005703711649403  2.5981025695800781 32.8184394836425781
  4.8025956153869629  0.0158244371414185 37.2923278808593750
  4.8035278320312500  2.6013770103454590 32.8175849914550781
 -0.0111648449674249 -0.0367668345570564 40.2556114196777344
  0.0039229467511177  2.5618193149566650 35.7765350341796875
 -0.1555984467267990  2.5704114437103271 38.5401992797851562
  0.7533334493637085  2.5720584392547607 40.0228881835937500
  4.8261947631835938 -0.1620647907257080 39.9907112121582031
  4.7867031097412109  0.7807552218437195 41.6020164489746094
