Ti O 
 1.0000000000000000
     9.6070604324340820    0.0000000000000000    0.0000000000000000
     0.0000000000000000    5.1663699150085449   -8.9484138488769531
     0.0000000000000000    0.0000000000000000   62.6389007568359375
 Ti  O  
  56  20
Cartesian
  1.2649726867675781  0.8708500862121582 21.0863704681396484
  1.2648980617523193  3.4538295269012451 16.6122875213623047
  6.0683689117431641  0.8705349564552307 21.0863380432128906
  6.0684247016906738  3.4539623260498047 16.6121501922607422
  3.5387361049652100  1.9059299230575562 19.2930030822753906
  3.5387055873870850  4.4892024993896484 14.8191013336181641
  8.3420581817626953  1.9060612916946411 19.2933216094970703
  8.3421077728271484  4.4891772270202637 14.8190479278564453
  1.2651466131210327  0.8813641071319580 23.8671321868896484
  1.2649941444396973  3.4644310474395752 19.3929386138916016
  6.0685477256774902  0.8812813162803650 23.8672428131103516
  6.0685782432556152  3.4644021987915039 19.3927593231201172
  3.5384259223937988  1.7361104488372803 22.3863315582275391
  3.5384981632232666  4.3195466995239258 17.9120101928710938
  8.3420362472534180  1.7362509965896606 22.3862285614013672
  8.3419246673583984  4.3194704055786133 17.9121398925781250
  1.2493977546691895  0.8422890305519104 26.8525562286376953
  1.2493453025817871  3.4255032539367676 22.3782939910888672
  6.0528602600097656  0.8422421813011169 26.8524780273437500
  6.0529088973999023  3.4254992008209229 22.3783454895019531
  3.5541772842407227  1.7189160585403442 25.3339805603027344
  3.5541362762451172  4.3022584915161133 20.8597221374511719
  8.3576555252075195  1.7190096378326416 25.3339576721191406
  8.3577022552490234  4.3022036552429199 20.8597259521484375
  1.3016861677169800  0.8506287336349487 29.8462619781494141
  1.3017575740814209  3.4337971210479736 25.3720932006835938
  6.1052269935607910  0.8505545258522034 29.8462085723876953
  6.1053042411804199  3.4337124824523926 25.3720798492431641
  3.5017678737640381  1.7326335906982422 28.3184165954589844
  3.5018417835235596  4.3158221244812012 23.8442611694335938
  8.3053197860717773  1.7326310873031616 28.3184566497802734
  8.3053750991821289  4.3158493041992188 23.8442649841308594
  1.2492589950561523  0.8642948269844055 32.8307723999023438
  1.2493931055068970  3.4473173618316650 28.3565044403076172
  6.0528726577758789  0.8642864823341370 32.8307991027832031
  6.0529732704162598  3.4473252296447754 28.3565044403076172
  3.5542061328887939  1.7410279512405396 31.3121967315673828
  3.5541193485260010  4.3240833282470703 26.8379421234130859
  8.3578147888183594  1.7409759759902954 31.3122100830078125
  8.3576831817626953  4.3240594863891602 26.8379421234130859
  1.2650455236434937  0.8469130992889404 35.7783432006835938
  1.2651191949844360  3.4302175045013428 31.3042354583740234
  6.0686297416687012  0.8468824625015259 35.7782936096191406
  6.0686712265014648  3.4301755428314209 31.3042411804199219
  3.5384066104888916  1.7020086050033569 34.2976036071777344
  3.5384457111358643  4.2849879264831543 29.8233795166015625
  8.3419485092163086  1.7019941806793213 34.2976264953613281
  8.3420228958129883  4.2850294113159180 29.8233623504638672
  1.2649021148681641  0.6771618723869324 38.8713912963867188
  1.2647229433059692  3.2603251934051514 34.3974609375000000
  6.0685896873474121  0.6770330071449280 38.8713645935058594
  6.0684151649475098  3.2601661682128906 34.3973350524902344
  3.5384042263031006  1.7122628688812256 37.0783500671386719
  3.5385994911193848  4.2955842018127441 32.6039733886718750
  8.3421735763549805  1.7123965024948120 37.0783729553222656
  8.3423366546630859  4.2957959175109863 32.6039886474609375
 -0.0000092227774076 -0.0841496810317039 25.3053226470947266
  0.0000042271062739  2.4990828037261963 20.8311195373535156
  4.8035211563110352 -0.0840322971343994 25.3053417205810547
  4.8035383224487305  2.4990718364715576 20.8310832977294922
 -0.0000188298381545  0.0431303568184376 28.3615322113037109
  0.0000019214119220  2.6263039112091064 23.8873901367187500
  4.8035101890563965  0.0432134829461575 28.3615417480468750
  4.8035731315612793  2.6263363361358643 23.8874778747558594
  0.0000004803529805  0.0000070779269663 31.3194465637207031
  0.0000083581426225  2.5831339359283447 26.8452339172363281
  4.8035354614257812  0.0000549701762793 31.3194732666015625
  4.8035387992858887  2.5832061767578125 26.8452720642089844
  0.0000005764235880 -0.0431892499327660 34.2773780822753906
  0.0000139302374009  2.5400664806365967 29.8030223846435547
  4.8035402297973633 -0.0431193001568317 34.2774162292480469
  4.8035140037536621  2.5401477813720703 29.8030529022216797
  0.0000058603063735  0.0839822366833687 37.3334808349609375
 -0.0000028821179967  2.6673331260681152 32.8593635559082031
  4.8035359382629395  0.0840465053915977 37.3335494995117188
  4.8035273551940918  2.6673235893249512 32.8593788146972656
