Ni O 
 1.0000000000000000
     8.1986503601074219    0.0000000000000000    1.0289880037307739
     4.0591487884521484    9.4208240509033203    0.8346049785614014
     0.0000000000000000    0.0000000000000000   33.1766052246093750
 Ni  O  
  36  46
Cartesian
  5.6169610023498535  5.8354773521423340 21.6032238006591797
  1.4264765977859497  2.9484157562255859 21.8150691986083984
  9.8012485504150391  8.8731412887573242 21.4370536804199219
  7.9574823379516602  7.4494085311889648 22.7686214447021484
  3.6839435100555420  4.0685496330261230 20.4870929718017578
  7.5809965133666992  1.2975836992263794 21.7032413482666016
  3.0599400997161865  7.4494891166687012 22.1539878845214844
  7.7661676406860352  4.0688009262084961 20.9995746612548828
  3.6871201992034912  1.2972418069839478 21.2144832611083984
  5.9570770263671875  5.0911254882812500 18.8916282653808594
  1.7601273059844971  2.2042448520660400 19.1526050567626953
 10.1508817672729492  7.9949159622192383 18.6526145935058594
  7.8533678054809570  6.9329738616943359 20.1192798614501953
  4.0393953323364258  3.2736480236053467 17.6607666015625000
  8.0280246734619141  0.4011907875537872 18.9904918670654297
  3.8171243667602539  6.9334087371826172 19.6127719879150391
  8.1192302703857422  3.2735457420349121 18.1726894378662109
  3.9248116016387939  0.4009743928909302 18.4755249023437500
  6.3007254600524902  4.3296990394592285 16.1485424041748047
  2.1069176197052002  1.4259188175201416 16.3875865936279297
 10.4976720809936523  7.2165822982788086 15.8876047134399414
  8.2184057235717773  6.1471714973449707 17.3794288635253906
  4.4044256210327148  2.4878404140472412 14.9209098815917969
  4.2297768592834473  9.0196409225463867 16.0497169494628906
  4.1385712623596191  6.1472759246826172 16.8675079345703125
  8.4406633377075195  2.4874162673950195 15.4274253845214844
  8.3329811096191406  9.0198535919189453 16.5646839141845703
  6.6408429145812988  3.5853610038757324 13.4369421005249023
  2.4565465450286865  0.5476766824722290 13.6031656265258789
 10.8313226699829102  6.4723997116088867 13.2251300811767578
  8.5738601684570312  5.3522753715515137 14.5531063079833984
  4.3003106117248535  1.9714049100875854 12.2715921401977539
  4.6767873764038086  8.1232471466064453 13.3369655609130859
  4.4916324615478516  5.3520240783691406 14.0406198501586914
  0.9992125630378723  1.9713311195373535 11.8572425842285156
  8.5706892013549805  8.1236009597778320 13.8257293701171875
  9.8388128280639648  3.8275451660156250 21.1405010223388672
  5.6387524604797363  1.0938109159469604 21.4227695465087891
  9.5763311386108398  8.1759500503540039 23.2284030914306641
  5.7520313262939453  4.1882548332214355 20.5270404815673828
  1.5499005317687988  1.2919450998306274 20.8293132781982422
  7.4990568161010742  5.8942818641662598 21.9661064147949219
  3.2159707546234131  2.9512100219726562 22.1231365203857422
 11.6521739959716797  8.8253240585327148 21.7480525970458984
  7.8148622512817383  2.9511704444885254 22.7004871368408203
  7.9308471679687500  8.8251628875732422 21.2809429168701172
  3.7035074234008789  5.8945946693420410 21.4897232055664062
  5.8402967453002930  6.7249569892883301 19.8242149353027344
  1.9742685556411743  3.0038344860076904 17.4463157653808594
  5.9613394737243652  0.1525077819824219 18.8546657562255859
  9.9331722259521484  7.2234563827514648 20.3886566162109375
  6.0879001617431641  3.5126001834869385 17.8478126525878906
  1.8914343118667603  0.6287753582000732 18.1047935485839844
  7.8152313232421875  5.0976061820983887 19.1459712982177734
  3.6086378097534180  2.2137756347656250 19.3861618041992188
  3.8090946674346924  7.9982094764709473 17.8425388336181641
  8.1098747253417969  2.2139408588409424 19.9512805938720703
  8.2974328994750977  7.9981594085693359 18.4058628082275391
  4.0936346054077148  5.0976748466491699 18.6791629791259766
  6.1699051856994629  5.9082231521606445 17.1923503875732422
  2.3246257305145264  2.1973679065704346 14.6515398025512695
 10.3663644790649414  8.7920465469360352 16.9354095458984375
 10.2835302352905273  6.4169921875000000 17.5938949584960938
  6.4175052642822266  2.6958723068237305 15.2159471511840820
  6.2964572906494141  9.2683172225952148 16.1855449676513672
  8.1641664505004883  4.3231487274169922 16.3610134124755859
  3.9603681564331055  1.4226733446121216 16.6343402862548828
  4.1479172706604004  7.2068819999694824 15.0889291763305664
  8.4487009048461914  1.4226235151290894 17.1976680755615234
  8.6491661071777344  7.2070460319519043 15.6540479660034180
  4.4425754547119141  4.3232173919677734 15.8942031860351562
  6.5057711601257324  5.2325701713562012 14.5131387710571289
  2.6814663410186768  1.2448539733886719 11.8118152618408203
 10.7078981399536133  8.1288671493530273 14.2108917236328125
  2.4189882278442383  5.5932850837707520 13.8996982574462891
  6.6190409660339355  8.3269863128662109 13.6174583435058594
  8.5542993545532227  3.5262401103973389 13.5504436492919922
  4.3269515037536621  0.5956465005874634 13.7592678070068359
  4.4429306983947754  6.4696631431579590 12.3397312164306641
  0.6056206226348877  0.5954872965812683 13.2921571731567383
  9.0418310165405273  6.4696211814880371 12.9170827865600586
  4.7587466239929199  3.5265493392944336 13.0740594863891602
