Ni O 
 1.0000000000000000
     8.4025077819824219    0.0000000000000000    0.0000000000000000
     0.0000000000000000    8.4025077819824219    0.0000000000000000
     0.0000000000000000    0.0000000000000000   42.0125389099121094
 Ni  O  
  52  62
Cartesian
  6.2398896217346191  2.1583750247955322 15.6214418411254883
 -0.0007597547955811  8.4016389846801758 15.4296760559082031
  2.1656634807586670  2.1601727008819580 15.6226015090942383
  2.1632149219512939  6.2428054809570312 15.6226272583007812
  4.2020473480224609  8.4018173217773438 15.6591424942016602
  6.2390470504760742  6.2410383224487305 15.6273460388183594
  0.0000247033731284  4.2007694244384766 15.6539640426635742
  4.2021422386169434  2.1249775886535645 17.7077770233154297
  2.1276965141296387  4.2004895210266113 17.7020931243896484
  4.2008461952209473  6.2748956680297852 17.7064895629882812
  6.2760310173034668  4.1990718841552734 17.7017135620117188
  2.0706086158752441  8.4020996093750000 17.7244110107421875
  6.3328404426574707  8.4016799926757812 17.7251396179199219
  0.0001468758418923  6.3310256004333496 17.7231979370117188
  0.0005300302291289  2.0706119537353516 17.7203693389892578
  0.0016915089217946  4.2005739212036133 19.8527126312255859
  2.0825185775756836  2.0792768001556396 19.8474826812744141
  4.2019019126892090  0.0004575165512506 19.8550624847412109
  2.0827646255493164  6.3198781013488770 19.8491401672363281
  4.2020416259765625  4.1996769905090332 19.8481349945068359
  6.3185520172119141  6.3183403015136719 19.8460044860839844
  6.3204708099365234  2.0789301395416260 19.8457031250000000
 -0.0002067857276415  2.0782337188720703 21.9387054443359375
  2.0829029083251953  8.4005203247070312 21.9424209594726562
  0.0009417530964129  6.3188409805297852 21.9404220581054688
  6.3227057456970215  8.4010295867919922 21.9376411437988281
  6.2649345397949219  4.1956677436828613 22.0018138885498047
  2.1398632526397705  4.1977591514587402 22.0073814392089844
  4.2037968635559082  2.1337006092071533 21.9975090026855469
  4.2023220062255859  6.2621402740478516 22.0009517669677734
  6.2666087150573730  2.1267609596252441 24.0882720947265625
 -0.0012377734528854  8.3967514038085938 24.0798473358154297
  2.1429398059844971  2.1394174098968506 24.0831413269042969
  2.1366622447967529  6.2599225044250488 24.0973930358886719
  4.2058691978454590 -0.0018067912897095 24.0801486968994141
  6.2717542648315430  6.2672047615051270 24.0834541320800781
  0.0042615840211511  4.1986780166625977 24.0838413238525391
  4.1960997581481934  2.1247718334197998 26.1696910858154297
  2.1279537677764893  4.2082591056823730 26.2072296142578125
  4.1937565803527832  6.2662448883056641 26.1769466400146484
  6.2640800476074219  4.1908111572265625 26.1365642547607422
  2.0838065147399902  8.3903570175170898 26.2237300872802734
  6.3177137374877930 -0.0028595414478332 26.2519245147705078
  0.0169660914689302  6.3189992904663086 26.2647228240966797
  0.0038761610630900  2.0705940723419189 26.2242736816406250
  8.3632183074951172  4.1729192733764648 28.3319759368896484
  2.0746829509735107  2.0684447288513184 28.3114566802978516
  4.1699962615966797  8.3851518630981445 28.2909049987792969
  2.0790488719940186  6.3530554771423340 28.5331878662109375
  4.2289733886718750  4.1744523048400879 28.3426685333251953
  6.3321590423583984  6.3533844947814941 28.2919578552246094
  6.3198037147521973  2.0878639221191406 28.3537750244140625
  0.0061808847822249  8.3999090194702148 13.5910654067993164
  0.0018887157784775  2.2252829074859619 15.6316471099853516
  2.2373640537261963 -0.0004368463996798 15.6486968994140625
  4.2027258872985840  1.8840887546539307 15.6377859115600586
  4.2010369300842285  6.5163073539733887 15.6436481475830078
  6.5162382125854492  4.1999387741088867 15.6405200958251953
  6.1673040390014648  8.4005002975463867 15.6486921310424805
  0.0000250394732575  6.1763439178466797 15.6360435485839844
  1.8878244161605835  4.2016839981079102 15.6393918991088867
  0.0004623900167644  8.4017276763916016 17.4388675689697266
  2.0967280864715576  2.0980403423309326 17.7294654846191406
  2.0960743427276611  6.3034372329711914 17.7323017120361328
  4.2006402015686035  8.4019212722778320 17.8170261383056641
  6.3059735298156738  6.3026337623596191 17.7292480468750000
  6.3072662353515625  2.0969595909118652 17.7283668518066406
  0.0010311558144167  4.2012166976928711 17.7957305908203125
  4.2015185356140137  4.2011775970458984 17.8644161224365234
  8.4003314971923828  6.0895233154296875 19.8525180816650391
 -0.0000971329936874  2.3131177425384521 19.8499374389648438
  2.3155033588409424  8.4001979827880859 19.8555030822753906
  2.0284485816955566  4.2019758224487305 19.8659019470214844
  4.2029151916503906  2.0482444763183594 19.8588752746582031
  6.0894641876220703  8.3980703353881836 19.8510513305664062
  4.2054333686828613  6.3558669090270996 19.8662548065185547
  6.3766942024230957  4.2046561241149902 19.8618011474609375
  4.2026090621948242  4.2005515098571777 21.8362598419189453
  6.3070583343505859  2.0958054065704346 21.9605827331542969
  0.0018298982176930  4.1994819641113281 21.9435272216796875
  2.0978899002075195  2.0960454940795898 21.9660739898681641
  2.1000318527221680  6.3025231361389160 21.9682521820068359
  4.2026267051696777  8.4003009796142578 21.9250049591064453
  6.3049740791320801  6.3021869659423828 21.9664764404296875
  0.0014759845798835  8.3998880386352539 22.1184024810791016
  8.3972959518432617  2.1108179092407227 24.0829505920410156
  2.1217942237854004  8.4005479812622070 24.0782871246337891
  4.2088809013366699  1.9470479488372803 24.0937519073486328
  4.2057843208312988  6.4499320983886719 24.1038780212402344
  6.4570751190185547  4.1940631866455078 24.0895290374755859
  6.2846436500549316  0.0002489663020242 24.0783309936523438
 -0.0007936168694869  6.2858371734619141 24.0856838226318359
  1.9498095512390137  4.1985497474670410 24.1020183563232422
  8.4007558822631836  8.3930940628051758 26.0322856903076172
  2.0952410697937012  2.0956234931945801 26.1715335845947266
  2.0958845615386963  6.3008799552917480 26.1859245300292969
  4.2080249786376953  8.3981580734252930 26.2579040527343750
  6.3151135444641113  6.3035044670104980 26.1741695404052734
  6.3079032897949219  2.0794513225555420 26.2194290161132812
  0.0106913512572646  4.2042789459228516 26.3014583587646484
  4.1851968765258789  4.1967911720275879 26.4001445770263672
  8.3677530288696289  6.0733857154846191 28.2813148498535156
  0.0073672351427376  2.2899150848388672 28.2251091003417969
  2.2746438980102539  0.0263037998229265 28.2113361358642578
  2.2021718025207520  4.1718587875366211 28.2481117248535156
  4.1861176490783691  2.0703258514404297 28.1906223297119141
  6.0758533477783203  8.3941602706909180 28.2756977081298828
  4.2581181526184082  6.2702083587646484 28.1629753112792969
  6.2017130851745605  4.2257394790649414 28.1342086791992188
  4.3735642433166504  3.9599189758300781 30.0894165039062500
  6.3108911514282227  2.7333731651306152 30.1364307403564453
  8.1313982009887695  4.0081620216369629 30.1214504241943359
  3.9516103267669678  8.2301063537597656 30.1093521118164062
  2.4247524738311768  6.5856966972351074 30.3654308319091797
