Ni O 
 1.0000000000000000
     8.4025077819824219    0.0000000000000000    0.0000000000000000
     0.0000000000000000    8.4025077819824219    0.0000000000000000
     0.0000000000000000    0.0000000000000000   42.0125389099121094
 Ni  O  
  52  62
Cartesian
  6.2751102447509766  2.1256599426269531 15.7269067764282227
  0.0014812781009823  8.4013004302978516 15.5925559997558594
  2.1304023265838623  2.1292519569396973 15.7288475036621094
  2.1305606365203857  6.2726874351501465 15.7233076095581055
  4.1984710693359375  8.4017181396484375 15.7357072830200195
  6.2742233276367188  6.2776012420654297 15.7322006225585938
 -0.0087594464421272  4.1988782882690430 15.7341585159301758
  4.2021636962890625  2.0966842174530029 17.7517871856689453
  2.0900659561157227  4.2010307312011719 17.7525138854980469
  4.2021851539611816  6.3053493499755859 17.7500019073486328
  6.3062090873718262  4.2028126716613770 17.7505970001220703
  2.0770046710968018 -0.0001547741994727 17.7702026367187500
  6.3253593444824219 -0.0002295565209351 17.7730636596679688
  0.0004265953321010  6.3241109848022461 17.7725238800048828
  0.0002020803221967  2.0782806873321533 17.7723197937011719
 -0.0007114403415471  4.1998467445373535 19.8591899871826172
  2.0935211181640625  2.0909268856048584 19.8594779968261719
  4.1993594169616699  0.0004443246289156 19.8622684478759766
  2.0937414169311523  6.3110876083374023 19.8583583831787109
  4.2046856880187988  4.1997447013854980 19.8322410583496094
  6.3102426528930664  6.3100819587707520 19.8610782623291016
  6.3105401992797852  2.0918352603912354 19.8608989715576172
  0.0002551001380198  2.0895845890045166 21.9284763336181641
  2.0913619995117188  0.0006326248403639 21.9309368133544922
  0.0001567067811266  6.3126311302185059 21.9280796051025391
  6.3124094009399414  0.0005101162823848 21.9301643371582031
  6.2866973876953125  4.2001457214355469 21.9508819580078125
  2.1162197589874268  4.1998586654663086 21.9522705078125000
  4.2014231681823730  2.1152040958404541 21.9539031982421875
  4.2017598152160645  6.2864818572998047 21.9505481719970703
  6.2807860374450684  2.1168115139007568 24.0532894134521484
  0.0005209554801695  0.0003901284362655 24.1132297515869141
  2.1217701435089111  2.1180090904235840 24.0561523437500000
  2.1171801090240479  6.2848095893859863 24.0529479980468750
  4.2016978263854980 -0.0033831018954515 24.0567512512207031
  6.2852907180786133  6.2858223915100098 24.0544738769531250
 -0.0032132870983332  4.1999011039733887 24.0596160888671875
  4.2122373580932617  2.1279556751251221 26.1511726379394531
  2.1189656257629395  4.2082834243774414 26.1446285247802734
  4.1939754486083984  6.2875056266784668 26.1459445953369141
  6.2863883972167969  4.1939787864685059 26.1361331939697266
  2.0814075469970703  8.3929519653320312 26.1856040954589844
  6.3213620185852051  0.0130730420351028 26.1880359649658203
  0.0110557675361633  6.3147950172424316 26.1874351501464844
  8.3921756744384766  2.0857548713684082 26.1887779235839844
  8.4022178649902344  4.2047238349914551 28.2973594665527344
  2.0770919322967529  2.0770719051361084 28.1652908325195312
  4.2019214630126953  0.0035150211770087 28.3008460998535156
  2.0676817893981934  6.3374748229980469 28.3039340972900391
  4.2026481628417969  4.1974883079528809 28.1693134307861328
  6.3231616020202637  6.3294997215270996 28.1616001129150391
  6.3316931724548340  2.0664813518524170 28.2959098815917969
  8.3987178802490234  8.4002971649169922 13.5594425201416016
  0.0020472710020840  2.0967900753021240 15.7366933822631836
  2.1009492874145508  8.3992004394531250 15.7380352020263672
  4.2002921104431152  1.8706272840499878 15.7630138397216797
  4.2056016921997070  6.5295124053955078 15.7612619400024414
  6.5350508689880371  4.1968903541564941 15.7634115219116211
  6.3083195686340332  0.0014166628243402 15.7312164306640625
  8.3930730819702148  6.3073625564575195 15.7337245941162109
  1.8726348876953125  4.2051677703857422 15.7617969512939453
  0.0012223127996549  8.4015703201293945 17.6100292205810547
  2.0711979866027832  2.0697462558746338 17.7724723815917969
  2.0724117755889893  6.3321375846862793 17.7683391571044922
  4.2006211280822754  8.4019708633422852 17.7909889221191406
  6.3309435844421387  6.3327565193176270 17.7841339111328125
  6.3304972648620605  2.0716173648834229 17.7743835449218750
  8.3979034423828125  4.2019882202148438 17.7879829406738281
  4.2086477279663086  4.2007222175598145 17.9695987701416016
  0.0020163499284536  6.0788192749023438 19.8609542846679688
  0.0012780214892700  2.3230347633361816 19.8629245758056641
  2.3255715370178223 -0.0002591333468445 19.8599052429199219
  2.0949797630310059  4.2011337280273438 19.8475608825683594
  4.2005047798156738  2.0929841995239258 19.8523101806640625
  6.0795135498046875  0.0007110201986507 19.8640899658203125
  4.2002754211425781  6.3091058731079102 19.8515815734863281
  6.3091230392456055  4.2007265090942383 19.8494682312011719
  4.2086267471313477  4.1983962059020996 21.7841396331787109
  6.3053836822509766  2.0995576381683350 21.9859447479248047
  8.3966560363769531  4.2011499404907227 21.9849071502685547
  2.0974271297454834  2.0924415588378906 21.9857902526855469
  2.0948085784912109  6.3101525306701660 21.9832248687744141
  4.2022042274475098  0.0001775449927663 21.9823112487792969
  6.3078675270080566  6.3028378486633301 21.9845333099365234
 -0.0002665275533218 -0.0001692265068414 22.1450309753417969
  0.0005843944381922  2.0942115783691406 24.0904235839843750
  2.0950312614440918  0.0020263488404453 24.0718402862548828
  4.2011847496032715  1.9081616401672363 24.0816249847412109
  4.2033572196960449  6.4981036186218262 24.1003913879394531
  6.4945101737976074  4.2002568244934082 24.1062202453613281
  6.3088350296020508 -0.0000753704953240 24.0766372680664062
  8.4015312194824219  6.3084111213684082 24.0942783355712891
  1.9040359258651733  4.1984443664550781 24.1068820953369141
  0.0079602841287851  0.0007089196005836 25.9896984100341797
  2.0996229648590088  2.0898575782775879 26.1375846862792969
  2.1122579574584961  6.3111796379089355 26.1619853973388672
  4.1932215690612793  8.3874883651733398 26.1674175262451172
  6.2897834777832031  6.2897543907165527 26.1357879638671875
  6.3037548065185547  2.1110119819641113 26.1799240112304688
  0.0056952200829983  4.1986823081970215 26.1710700988769531
  4.1968927383422852  4.2165760993957520 26.3814220428466797
  8.3775625228881836  6.0918107032775879 28.1581096649169922
  0.0195330586284399  2.3070144653320312 28.1651268005371094
  2.3112556934356689  0.0184193067252636 28.1801357269287109
  2.1239285469055176  4.1776480674743652 28.1452884674072266
  4.1764340400695801  2.1287405490875244 28.1674137115478516
  6.0898461341857910  8.3929929733276367 28.1769809722900391
  4.2273254394531250  6.2796211242675781 28.1420955657958984
  6.2767009735107422  4.2137632369995117 28.1395816802978516
  4.2029671669006348  4.1957387924194336 30.0735759735107422
  6.2996473312377930  2.1051864624023438 30.1340847015380859
  0.0015910149086267  4.2027053833007812 30.1347961425781250
  4.1950001716613770  0.0008029436576180 30.1346168518066406
  2.0969698429107666  6.3036875724792480 30.1241397857666016
