Ni O 
 1.0000000000000000
     8.4025077819824219    0.0000000000000000    0.0000000000000000
     0.0000000000000000    8.4025077819824219    0.0000000000000000
     0.0000000000000000    0.0000000000000000   42.0125389099121094
 Ni  O  
  52  56
Cartesian
  6.2379741668701172  2.1645326614379883 15.7662858963012695
  0.0000064699311224  0.0000057137053773 15.7399349212646484
  2.1645369529724121  2.1645359992980957 15.7663040161132812
  2.1645393371582031  6.2379693984985352 15.7662792205810547
  4.2012510299682617  0.0000019325768790 15.8015336990356445
  6.2379755973815918  6.2379765510559082 15.7662591934204102
  0.0000025207523322  4.2012500762939453 15.8015356063842773
  4.2012553215026855  2.1223068237304688 17.8377151489257812
  2.1223156452178955  4.2012557983398438 17.8377075195312500
  4.2012548446655273  6.2801918983459473 17.8376827239990234
  6.2801842689514160  4.2012553215026855 17.8376770019531250
  2.0626478195190430  8.4025049209594727 17.8757724761962891
  6.3398604393005371  8.4025049209594727 17.8757648468017578
 -0.0000020166019112  6.3398642539978027 17.8757591247558594
  8.4025058746337891  2.0626454353332520 17.8757705688476562
  8.4025011062622070  4.2012548446655273 19.9859371185302734
  2.0682783126831055  2.0682761669158936 19.9775753021240234
  4.2012548446655273  8.4025011062622070 19.9859886169433594
  2.0682809352874756  6.3342313766479492 19.9775791168212891
  4.2012610435485840  4.2012610435485840 19.9785327911376953
  6.3342275619506836  6.3342299461364746 19.9775791168212891
  6.3342289924621582  2.0682785511016846 19.9775791168212891
 -0.0000004201253887  2.0691237449645996 22.0616226196289062
  2.0691187381744385 -0.0000003361003280 22.0616264343261719
  8.4025068283081055  6.3333830833435059 22.0616226196289062
  6.3333888053894043  8.4025068283081055 22.0616283416748047
  6.2703723907470703  4.2012548446655273 22.1192188262939453
  2.1321194171905518  4.2012534141540527 22.1191864013671875
  4.2012538909912109  2.1321251392364502 22.1191921234130859
  4.2012548446655273  6.2703661918640137 22.1192226409912109
  6.2694983482360840  2.1330072879791260 24.2033042907714844
  8.4025068283081055  8.4025068283081055 24.2024040222167969
  2.1330084800720215  2.1330068111419678 24.2033023834228516
  2.1330091953277588  6.2695002555847168 24.2033042907714844
  4.2012553215026855  0.0000015124514903 24.1949062347412109
  6.2695012092590332  6.2695035934448242 24.2033119201660156
  0.0000014284263443  4.2012548446655273 24.1949081420898438
  4.2012543678283691  2.1385457515716553 26.3051567077636719
  2.1385471820831299  4.2012543678283691 26.3051548004150391
  4.2012548446655273  6.2639608383178711 26.3051548004150391
  6.2639598846435547  4.2012548446655273 26.3051528930664062
  2.0789916515350342  0.0000001680501640 26.3432025909423828
  6.3235154151916504  0.0000006722006560 26.3432064056396484
  8.4025077819824219  6.3235144615173340 26.3432064056396484
  8.4025077819824219  2.0789928436279297 26.3432044982910156
  0.0000021006269435  4.2012534141540527 28.3794536590576172
  2.0366964340209961  2.0366961956024170 28.4147014617919922
  4.2012538909912109  0.0000011763511338 28.3794517517089844
  2.0367019176483154  6.3658089637756348 28.4146995544433594
  4.2012481689453125  4.2012510299682617 28.4411067962646484
  6.3658003807067871  6.3658022880554199 28.4147014617919922
  6.3658027648925781  2.0367054939270020 28.4146995544433594
  0.0000013444013121  2.1170451641082764 15.7391309738159180
  2.1170458793640137  0.0000009242758665 15.7391290664672852
  4.2012534141540527  1.9172248840332031 15.7760944366455078
  4.2012538909912109  6.4852957725524902 15.7760877609252930
  6.4852924346923828  4.2012529373168945 15.7760906219482422
  6.2854638099670410  0.0000014284263443 15.7391281127929688
  0.0000018485517330  6.2854633331298828 15.7391281127929688
  1.9172290563583374  4.2012524604797363 15.7760953903198242
  0.0000009242758665  0.0000011763511338 17.7225131988525391
  2.0984206199645996  2.0984196662902832 17.8566589355468750
  2.0984203815460205  6.3040885925292969 17.8566532135009766
  4.2012534141540527  0.0000016805015548 17.9067935943603516
  6.3040885925292969  6.3040895462036133 17.8566493988037109
  6.3040881156921387  2.0984191894531250 17.8566551208496094
  0.0000016805015548  4.2012534141540527 17.9067821502685547
  4.2012524604797363  4.2012519836425781 18.0373458862304688
 -0.0000003361003280  6.1351642608642578 19.9842147827148438
 -0.0000003361003280  2.2673447132110596 19.9842147827148438
  2.2673447132110596 -0.0000004201253887 19.9842185974121094
  2.0985488891601562  4.2012543678283691 19.9862174987792969
  4.2012543678283691  2.0985486507415771 19.9862174987792969
  6.1351647377014160 -0.0000003361003280 19.9842185974121094
  4.2012543678283691  6.3039588928222656 19.9862213134765625
  6.3039588928222656  4.2012543678283691 19.9862232208251953
  4.2012543678283691  4.2012543678283691 21.9274101257324219
  6.3018789291381836  2.1006286144256592 22.0904197692871094
  8.4025077819824219  4.2012538909912109 22.0903968811035156
  2.1006295680999756  2.1006288528442383 22.0904216766357422
  2.1006293296813965  6.3018794059753418 22.0904197692871094
  4.2012538909912109  8.4025077819824219 22.0904064178466797
  6.3018794059753418  6.3018798828125000 22.0904178619384766
  0.0000001680501640  0.0000001680501640 22.2534542083740234
 -0.0000000840250820  2.1027195453643799 24.1946334838867188
  2.1027209758758545  0.0000000840250820 24.1946334838867188
  4.2012548446655273  1.9338974952697754 24.1966419219970703
  4.2012553215026855  6.4686107635498047 24.1966476440429688
  6.4686107635498047  4.2012553215026855 24.1966476440429688
  6.2997875213623047  0.0000001680501640 24.1946334838867188
  0.0000000000000000  6.2997889518737793 24.1946334838867188
  1.9338960647583008  4.2012543678283691 24.1966419219970703
 -0.0000004201253887 -0.0000004201253887 26.1435508728027344
  2.1028392314910889  2.1028382778167725 26.3242626190185547
  2.1028397083282471  6.2996706962585449 26.3242626190185547
  4.2012548446655273 -0.0000012603761661 26.2741050720214844
  6.2996692657470703  6.2996702194213867 26.3242626190185547
  6.2996692657470703  2.1028389930725098 26.3242626190185547
 -0.0000013444013121  4.2012548446655273 26.2741050720214844
  4.2012548446655273  4.2012548446655273 26.4584236145019531
  0.0000003361003280  6.1184716224670410 28.4048042297363281
 -0.0000006722006560  2.2840421199798584 28.4048061370849609
  2.2840392589569092  0.0000002520752389 28.4048061370849609
  2.0841944217681885  4.2012543678283691 28.4418487548828125
  4.2012538909912109  2.0841948986053467 28.4418487548828125
  6.1184697151184082  0.0000008402507774 28.4048042297363281
  4.2012538909912109  6.3183140754699707 28.4418487548828125
  6.3183140754699707  4.2012543678283691 28.4418468475341797
