Cu O 
 1.0000000000000000
     9.3401937484741211    0.0000000000000000    0.0000000000000000
     0.0000000000000000    9.3401937484741211    0.0000000000000000
     0.0000000000000000    0.0000000000000000   46.7009696960449219
 Cu  O  
  56  80
Cartesian
 -0.0005841357051395  2.3335826396942139 17.8878402709960938
  4.6689295768737793  7.0068836212158203 17.8884792327880859
  6.6090960502624512  4.4634447097778320 17.9074707031250000
  2.7312383651733398  0.2052925080060959 17.9079303741455078
  1.9390614032745361  4.8765344619750977 17.9071674346923828
  7.4011578559875488  9.1348476409912109 17.9074478149414062
  4.6705136299133301  2.3347251415252686 18.0399723052978516
  0.0002102477737935  7.0054321289062500 18.0400962829589844
  2.3382203578948975  2.3278331756591797 20.0662460327148438
  4.2386097908020020  4.6343002319335938 20.1153030395507812
  0.4320504665374756  9.3046779632568359 20.1147651672363281
  8.9084348678588867  4.7055988311767578 20.1151123046875000
  2.3328757286071777  6.9985880851745605 20.0661869049072266
  7.0024538040161133  2.3420863151550293 20.0665969848632812
  5.1019687652587891  0.0358202978968620 20.1154346466064453
  7.0077700614929199  7.0119056701660156 20.0659675598144531
  4.6699738502502441  7.0050368309020996 22.0871772766113281
 -0.0002232306433143  2.3348848819732666 22.0872077941894531
  7.0459160804748535  0.3024585545063019 22.4144573211669922
  2.2944793701171875  4.3677139282226562 22.4149208068847656
  2.3759646415710449  9.0381679534912109 22.4144363403320312
  6.9647002220153809  4.9718823432922363 22.4147071838378906
 -0.0001731671945890  7.0049734115600586 22.7510547637939453
  4.6697196960449219  2.3354771137237549 22.7505607604980469
  4.3884115219116211  0.0000366135609511 24.7516975402832031
  7.0053977966308594  2.3350048065185547 24.7520961761474609
  2.3348128795623779  7.0053210258483887 24.7520065307617188
  0.2816801667213440  4.6697659492492676 24.7512817382812500
  2.3346931934356689  2.3351204395294189 24.7516422271728516
  7.0052537918090820  7.0050582885742188 24.7515830993652344
  9.0582008361816406  0.0000992862624116 24.7514038085937500
  4.9518394470214844  4.6704196929931641 24.7515869140625000
 -0.0000602442523814  2.3350481986999512 26.7522048950195312
  4.6700468063354492  7.0051250457763672 26.7526302337646484
  6.9637227058410645  4.3680706024169922 27.0888462066650391
  2.3764331340789795  0.3017269372940063 27.0887928009033203
  2.2939577102661133  4.9719481468200684 27.0887756347656250
  7.0462441444396973  9.0387277603149414 27.0887565612792969
  4.6700601577758789  2.3350222110748291 27.4154624938964844
  0.0000311028452415  7.0055260658264160 27.4155273437500000
  2.3329920768737793  2.3409025669097900 29.4368476867675781
  4.2388300895690918  4.7057909965515137 29.3877449035644531
  0.4310488402843475  0.0355155281722546 29.3878173828125000
  8.9091053009033203  4.6343822479248047 29.3875465393066406
  2.3366889953613281  7.0117754936218262 29.4369430541992188
  7.0069661140441895  2.3287880420684814 29.4369182586669922
  5.1012868881225586  9.3045806884765625 29.3876686096191406
  7.0034813880920410  6.9992284774780273 29.4371929168701172
  4.6703205108642578  7.0052986145019531 31.4628715515136719
  0.0000525852919964  2.3349542617797852 31.4627666473388672
  7.4019684791564941  0.2058757096529007 31.5947818756103516
  1.9380618333816528  4.4643416404724121 31.5945968627929688
  2.7322993278503418  9.1343975067138672 31.5940952301025391
  6.6080141067504883  4.8756947517395020 31.5945606231689453
  0.0007136842468753  7.0047845840454102 31.6154670715332031
  4.6698956489562988  2.3350291252136230 31.6154022216796875
  3.7975804805755615  1.2019619941711426 16.8663177490234375
  0.8729763031005859  5.8737125396728516 16.8662624359130859
  8.4675960540771484  8.1381320953369141 16.8665866851806641
  5.5435781478881836  3.4663224220275879 16.8661479949951172
  3.2877922058105469  6.1437978744506836 18.4954776763916016
  7.9572505950927734  3.1958410739898682 18.4961605072021484
  1.3829373121261597  1.4734297990798950 18.4952259063720703
  6.0531134605407715  7.8670535087585449 18.4945220947265625
  1.7023987770080566  8.3593292236328125 18.8787136077880859
  6.3718032836914062  0.9807818531990051 18.8791522979736328
  7.6375746726989746  5.6508512496948242 18.8784675598144531
  2.9682106971740723  3.6892135143280029 18.8789730072021484
  5.4816741943359375  3.4834623336791992 19.3416175842285156
  3.8591401576995850  1.1871649026870728 19.3420944213867188
  0.8114215731620789  5.8567523956298828 19.3416042327880859
  8.5291404724121094  8.1529951095581055 19.3417129516601562
  8.4606018066406250  1.1727398633956909 20.8147392272949219
  3.7907729148864746  8.1678743362426758 20.8146305084228516
  5.5496830940246582  5.8429899215698242 20.8145866394042969
  0.8796420097351074  3.4967560768127441 20.8145637512207031
  3.0618801116943359  5.6379990577697754 21.2315006256103516
  1.6078579425811768  0.9681105613708496 21.2313919067382812
  6.2780632972717285  8.3721446990966797 21.2313461303710938
  7.7319393157958984  3.7019724845886230 21.2316474914550781
  3.4806201457977295  3.1402626037597656 21.4738922119140625
  5.8601365089416504  1.5296288728713989 21.4730186462402344
  1.1893041133880615  7.8105568885803223 21.4737548828125000
  8.1507377624511719  6.1997199058532715 21.4741783142089844
  1.1157939434051514  3.1403579711914062 23.3730545043945312
  8.2240171432495117  1.5296570062637329 23.3738422393798828
  3.5540726184844971  7.8111352920532227 23.3738918304443359
  5.7862334251403809  6.1991543769836426 23.3729496002197266
  1.4857202768325806  5.6547794342041016 23.5350666046142578
  3.1842470169067383  0.9847054481506348 23.5356502532958984
  7.8541274070739746  8.3558635711669922 23.5353603363037109
  6.1559267044067383  3.6852200031280518 23.5350074768066406
  3.6683096885681152  3.5415990352630615 23.9585590362548828
  8.3391532897949219  5.7984209060668945 23.9587020874023438
  5.6719460487365723  1.1286158561706543 23.9587631225585938
  1.0011773109436035  8.2117691040039062 23.9589195251464844
  8.3379926681518555  3.5411639213562012 25.5438613891601562
  1.0021144151687622  1.1287672519683838 25.5437889099121094
  5.6715764999389648  8.2115974426269531 25.5440273284912109
  3.6682586669921875  5.7989273071289062 25.5440139770507812
  6.1556067466735840  5.6542267799377441 25.9675254821777344
  1.4853330850601196  3.6860239505767822 25.9671783447265625
  3.1844902038574219  8.3560972213745117 25.9671897888183594
  7.8544588088989258  0.9839664697647095 25.9671764373779297
  3.5544271469116211  1.5300036668777466 26.1291904449462891
  1.1156755685806274  6.1994328498840332 26.1290588378906250
  8.2243070602416992  7.8109946250915527 26.1295928955078125
  5.7861046791076660  3.1401138305664062 26.1289157867431641
  3.4804961681365967  6.1992816925048828 28.0288581848144531
  8.1503582000732422  3.1408956050872803 28.0290508270263672
  1.1898491382598877  1.5291624069213867 28.0295219421386719
  5.8598804473876953  7.8111882209777832 28.0293865203857422
  1.6075749397277832  8.3723516464233398 28.2723693847656250
  6.2776403427124023  0.9680443406105042 28.2726135253906250
  7.7329897880554199  5.6384558677673340 28.2722454071044922
  3.0629327297210693  3.7019116878509521 28.2724761962890625
  5.5490965843200684  3.4965274333953857 28.6887779235839844
  8.4612894058227539  8.1673345565795898 28.6892795562744141
  3.7910168170928955  1.1733775138854980 28.6890010833740234
  0.8786931633949280  5.8432931900024414 28.6890068054199219
  8.5274915695190430  1.1861805915832520 30.1624698638916016
  3.8578865528106689  8.1539707183837891 30.1623783111572266
  5.4824204444885254  5.8563861846923828 30.1624794006347656
  0.8126253485679626  3.4836070537567139 30.1623516082763672
  2.9680562019348145  5.6507015228271484 30.6239719390869141
  1.7015658617019653  0.9803770184516907 30.6236896514892578
  6.3718461990356445  8.3597860336303711 30.6238651275634766
  7.6384296417236328  3.6894662380218506 30.6239547729492188
  3.2875564098358154  3.1959297657012939 31.0062751770019531
  1.3818771839141846  7.8659796714782715 31.0068225860595703
  6.0520725250244141  1.4746180772781372 31.0069789886474609
  7.9576096534729004  6.1443347930908203 31.0070323944091797
  0.8717307448387146  3.4672162532806396 32.6367912292480469
  8.4681501388549805  1.2029049396514893 32.6368293762207031
  3.7979805469512939  8.1371574401855469 32.6369018554687500
  5.5419850349426270  5.8728981018066406 32.6369056701660156
