Cu O 
 1.0000000000000000
     9.3401937484741211    0.0000000000000000    0.0000000000000000
     0.0000000000000000    9.3401937484741211    0.0000000000000000
     0.0000000000000000    0.0000000000000000   46.7009696960449219
 Cu  O  
  56  80
Cartesian
  0.0002038964303210  2.3345768451690674 17.5089244842529297
  4.6701979637145996  7.0054159164428711 17.5055465698242188
  6.9422049522399902  4.3005766868591309 17.7555122375488281
  2.3979802131652832  0.3700371086597443 17.7556476593017578
  2.2721400260925293  5.0419893264770508 17.7592201232910156
  7.0686049461364746  8.9670486450195312 17.7600154876708984
  4.6694903373718262  2.3344900608062744 18.0273551940917969
 -0.0000757489760872  7.0053539276123047 18.0276317596435547
  2.3378789424896240  2.3352134227752686 20.0780677795410156
  4.3544330596923828  4.6645259857177734 20.0832901000976562
  0.3169696629047394 -0.0050874170847237 20.0827693939208984
  9.0239248275756836  4.6757545471191406 20.0832672119140625
  2.3330843448638916  7.0039544105529785 20.0785923004150391
  7.0019507408142090  2.3362376689910889 20.0771694183349609
  4.9859166145324707  0.0050937682390213 20.0826797485351562
  7.0072021484375000  7.0051918029785156 20.0793437957763672
  4.6709060668945312  7.0047211647033691 22.1009101867675781
  0.0012597119202837  2.3357686996459961 22.0992393493652344
  7.0021309852600098  0.3183542490005493 22.4153690338134766
  2.3379907608032227  4.3531475067138672 22.4146404266357422
  2.3324754238128662  9.0218534469604492 22.4161834716796875
  7.0073289871215820  4.9874086380004883 22.4160461425781250
 -0.0004641142440960  7.0046000480651855 22.7324600219726562
  4.6691541671752930  2.3363258838653564 22.7320003509521484
  4.3524141311645508 -0.0002940293052234 24.7517204284667969
  7.0041041374206543  2.3365781307220459 24.7518196105957031
  2.3345797061920166  7.0046153068542480 24.7527847290039062
  0.3176408410072327  4.6702260971069336 24.7508087158203125
  2.3345763683319092  2.3358914852142334 24.7503128051757812
  7.0040044784545898  7.0035176277160645 24.7514324188232422
  9.0215549468994141  0.0001311363303103 24.7508354187011719
  4.9861416816711426  4.6702685356140137 24.7515716552734375
 -0.0005467749433592  2.3355801105499268 26.7696914672851562
  4.6692357063293457  7.0044755935668945 26.7700481414794922
  7.0066909790039062  4.3531823158264160 27.0875606536865234
  2.3336932659149170  0.3183124065399170 27.0878582000732422
  2.3370373249053955  4.9863367080688477 27.0882358551025391
  7.0030431747436523  9.0228195190429688 27.0885372161865234
  4.6706624031066895  2.3355259895324707 27.4020042419433594
  0.0005553679075092  7.0045957565307617 27.4020843505859375
  2.3329243659973145  2.3371446132659912 29.4246006011962891
  4.3545651435852051  4.6760587692260742 29.4196567535400391
  0.3160384595394135  0.0062616658397019 29.4200630187988281
  9.0246706008911133  4.6640930175781250 29.4194622039794922
  2.3395006656646729  7.0050988197326660 29.4242382049560547
  7.0082497596740723  2.3342568874359131 29.4239234924316406
  4.9862070083618164 -0.0062363543547690 29.4201431274414062
  7.0017638206481934  7.0039067268371582 29.4251232147216797
  4.6707029342651367  7.0047335624694824 31.4729881286621094
  0.0004739214491565  2.3354282379150391 31.4730472564697266
  7.0691428184509277  0.3756172955036163 31.7382354736328125
  2.2714512348175049  4.2954392433166504 31.7393894195556641
  2.3994626998901367  8.9628515243530273 31.7365760803222656
  6.9413003921508789  5.0463204383850098 31.7379093170166016
 -0.0001200214901473  7.0050001144409180 31.9902973175048828
  4.6700305938720703  2.3351273536682129 31.9857711791992188
  3.5052812099456787  1.4854612350463867 16.8260021209716797
  1.1660742759704590  6.1540732383728027 16.8263416290283203
  8.1740856170654297  7.8561415672302246 16.8257579803466797
  5.8350634574890137  3.1848962306976318 16.8266010284423828
  3.5456173419952393  6.2146978378295898 18.6656723022460938
  8.2187213897705078  3.1248276233673096 18.6665706634521484
  1.1179199218750000  1.5429810285568237 18.6615772247314453
  5.7923231124877930  7.7978687286376953 18.6630210876464844
  1.5425266027450562  8.3650245666503906 18.8728828430175781
  6.2141165733337402  0.9731649756431580 18.8708896636962891
  7.7988567352294922  5.6420307159423828 18.8702697753906250
  3.1276519298553467  3.7013287544250488 18.8666858673095703
  5.6279015541076660  3.5282053947448730 19.2804908752441406
  3.7176909446716309  1.1379486322402954 19.2793426513671875
  0.9588940143585205  5.8096899986267090 19.2788887023925781
  8.3837194442749023  8.2031097412109375 19.2775192260742188
  8.3732995986938477  1.1364439725875854 20.8854160308837891
  3.7023589611053467  8.2043342590332031 20.8836383819580078
  5.6341490745544434  5.8058466911315918 20.8832073211669922
  0.9604576826095581  3.5354361534118652 20.8848857879638672
  3.1352453231811523  5.6429929733276367 21.2746715545654297
  1.5307390689849854  0.9668420553207397 21.2801895141601562
  6.2031621932983398  8.3723134994506836 21.2775096893310547
  7.8076691627502441  3.6968541145324707 21.2759990692138672
  3.5378382205963135  3.1358783245086670 21.4570388793945312
  5.8068537712097168  1.5332266092300415 21.4519405364990234
  1.1364568471908569  7.8071031570434570 21.4503154754638672
  8.2067346572875977  6.2036972045898438 21.4534568786621094
  1.1364482641220093  3.1346833705902100 23.3882827758789062
  8.2035789489746094  1.5320876836776733 23.3874244689941406
  3.5324194431304932  7.8075604438781738 23.3847389221191406
  5.8088741302490234  6.2065443992614746 23.3859844207763672
  1.5317931175231934  5.6394743919372559 23.5556125640869141
  3.1380496025085449  0.9716249704360962 23.5564613342285156
  7.8089494705200195  8.3702716827392578 23.5560779571533203
  6.2035994529724121  3.6978492736816406 23.5557880401611328
  3.6993150711059570  3.5297520160675049 23.9513702392578125
  8.3707456588745117  5.8080697059631348 23.9507312774658203
  5.6407904624938965  1.1370456218719482 23.9486503601074219
  0.9681606292724609  8.2054061889648438 23.9484672546386719
  8.3707017898559570  3.5318357944488525 25.5542564392089844
  0.9709853529930115  1.1366674900054932 25.5555667877197266
  5.6393122673034668  8.2025604248046875 25.5539302825927734
  3.7033369541168213  5.8092422485351562 25.5531005859375000
  6.2041912078857422  5.6411776542663574 25.9498291015625000
  1.5322571992874146  3.6976008415222168 25.9463195800781250
  3.1381151676177979  8.3721609115600586 25.9504947662353516
  7.8091778755187988  0.9706374406814575 25.9469966888427734
  3.5310482978820801  1.5329828262329102 26.1168155670166016
  1.1342836618423462  6.2047200202941895 26.1193141937255859
  8.2043285369873047  7.8075728416442871 26.1172599792480469
  5.8088488578796387  3.1345145702362061 26.1185302734375000
  3.5340518951416016  6.2068667411804199 28.0511798858642578
  8.2038106918334961  3.1358122825622559 28.0508689880371094
  1.1362848281860352  1.5318974256515503 28.0503520965576172
  5.8059010505676270  7.8059563636779785 28.0498962402343750
  1.5328344106674194  8.3683214187622070 28.2256412506103516
  6.2040939331054688  0.9722632169723511 28.2266883850097656
  7.8069958686828613  5.6416606903076172 28.2252407073974609
  3.1358187198638916  3.6975717544555664 28.2269420623779297
  5.6378436088562012  3.5306959152221680 28.6203708648681641
  8.3750162124633789  8.2027139663696289 28.6189250946044922
  3.7021310329437256  1.1370923519134521 28.6185474395751953
  0.9655625224113464  5.8104777336120605 28.6209964752197266
  8.3791074752807617  1.1391406059265137 30.2287178039550781
  3.7074854373931885  8.2016754150390625 30.2286186218261719
  5.6313891410827637  5.8091292381286621 30.2279644012451172
  0.9604399800300598  3.5299851894378662 30.2280960083007812
  3.1250207424163818  5.6439318656921387 30.6349334716796875
  1.5422753095626831  0.9721161723136902 30.6353740692138672
  6.2137069702148438  8.3683605194091797 30.6352863311767578
  7.7965040206909180  3.6963760852813721 30.6355304718017578
  3.5473914146423340  3.1242291927337646 30.8421897888183594
  1.1248354911804199  7.7977032661437988 30.8400650024414062
  5.7930393218994141  1.5446745157241821 30.8409442901611328
  8.2158088684082031  6.2137327194213867 30.8419189453125000
  1.1660345792770386  3.1856305599212646 32.6751174926757812
  8.1738052368164062  1.4841620922088623 32.6748886108398438
  3.5022802352905273  7.8571200370788574 32.6755523681640625
  5.8375840187072754  6.1534333229064941 32.6756744384765625
