Mn O 
 1.0000000000000000
     9.6192922592163086    0.0000000000000000    0.0000000000000000
     0.0000000000000000    9.6219177246093750    0.0000000000000000
     0.0000000000000000    0.0000000000000000   47.9949150085449219
 Mn  O  
  56  72
Cartesian
  7.1662764549255371  2.7449214458465576 18.6679096221923828
  7.2626614570617676  7.5558805465698242 18.6679096221923828
  4.8096461296081543  0.0000000000000000 18.7180175781250000
  0.0000000000000000  0.0000000000000000 18.7180175781250000
  4.8096461296081543  4.8109588623046875 18.7180175781250000
  0.0000000000000000  4.8109588623046875 18.7180175781250000
  2.4530155658721924  6.8769965171813965 18.7681236267089844
  2.3566303253173828  2.0660374164581299 18.7681236267089844
  4.7467455863952637  2.3840417861938477 20.7866935729980469
  0.0629005506634712  7.1950006484985352 20.7866935729980469
  7.5590705871582031  4.7997975349426270 21.0901660919189453
  6.8698673248291016  9.6107568740844727 21.0901660919189453
  2.7494244575500488  4.7997975349426270 21.1453590393066406
  2.0602214336395264  9.6107568740844727 21.1453590393066406
  4.8725466728210449  7.1950006484985352 21.4488315582275391
  9.5563917160034180  2.3840417861938477 21.4488315582275391
  7.2626614570617676  6.8769965171813965 23.4674015045166016
  7.1662764549255371  2.0660374164581299 23.4674015045166016
  0.0000000000000000  4.8109588623046875 23.5175075531005859
  0.0000000000000000  0.0000000000000000 23.5175075531005859
  4.8096461296081543  0.0000000000000000 23.5175075531005859
  4.8096461296081543  4.8109588623046875 23.5175075531005859
  2.3566303253173828  2.7449214458465576 23.5676155090332031
  2.4530155658721924  7.5558805465698242 23.5676155090332031
  4.7467455863952637  2.4269170761108398 25.5861854553222656
  0.0629005506634712  7.2378759384155273 25.5861854553222656
  7.5590705871582031  0.0111614251509309 25.8896579742431641
  6.8698673248291016  4.8221201896667480 25.8896579742431641
  2.7494244575500488  0.0111614251509309 25.9448509216308594
  2.0602214336395264  4.8221201896667480 25.9448509216308594
  9.5563917160034180  2.4269170761108398 26.2483234405517578
  4.8725466728210449  7.2378759384155273 26.2483234405517578
  7.1662764549255371  2.7449214458465576 28.2668933868408203
  7.2626614570617676  7.5558805465698242 28.2668933868408203
  4.8096461296081543  0.0000000000000000 28.3169994354248047
  0.0000000000000000  0.0000000000000000 28.3169994354248047
  4.8096461296081543  4.8109588623046875 28.3169994354248047
  0.0000000000000000  4.8109588623046875 28.3169994354248047
  2.4530155658721924  6.8769965171813965 28.3671073913574219
  2.3566303253173828  2.0660374164581299 28.3671073913574219
  4.7467455863952637  2.3840417861938477 30.3856773376464844
  0.0629005506634712  7.1950006484985352 30.3856773376464844
  7.5590705871582031  4.7997975349426270 30.6891479492187500
  6.8698673248291016  9.6107568740844727 30.6891479492187500
  2.7494244575500488  4.7997975349426270 30.7443428039550781
  2.0602214336395264  9.6107568740844727 30.7443428039550781
  4.8725466728210449  7.1950006484985352 31.0478153228759766
  9.5563917160034180  2.3840417861938477 31.0478153228759766
  7.2626614570617676  6.8769965171813965 33.0663833618164062
  7.1662764549255371  2.0660374164581299 33.0663833618164062
  0.0000000000000000  4.8109588623046875 33.1164932250976562
  0.0000000000000000  0.0000000000000000 33.1164932250976562
  4.8096461296081543  0.0000000000000000 33.1164932250976562
  4.8096461296081543  4.8109588623046875 33.1164932250976562
  2.3566303253173828  2.7449214458465576 33.1665992736816406
  2.4530155658721924  7.5558805465698242 33.1665992736816406
  6.0043811798095703  1.3825156688690186 19.5064296722412109
  8.4245567321777344  6.1934747695922852 19.5064296722412109
  1.3137644529342651  8.2123651504516602 19.5911407470703125
  3.4958815574645996  3.4014058113098145 19.5911407470703125
  6.1666779518127441  3.9970409870147705 19.9190406799316406
  8.2622604370117188  8.8079996109008789 19.9190406799316406
  3.3695130348205566  0.8413789868354797 20.0211753845214844
  1.4401330947875977  5.6523380279541016 20.0211753845214844
  5.6538543701171875  8.3728876113891602 20.0699367523193359
  8.7750835418701172  3.5619282722473145 20.0699367523193359
  0.7871851325035095  1.2334337234497070 20.1252765655517578
  4.0224609375000000  6.0443925857543945 20.1252765655517578
  8.8321065902709961  6.0443925857543945 22.1102485656738281
  5.5968313217163086  1.2334337234497070 22.1102485656738281
  3.9654376506805420  3.5619282722473145 22.1655883789062500
  0.8442083001136780  8.3728876113891602 22.1655883789062500
  6.2497792243957520  5.6523380279541016 22.2143497467041016
  8.1791591644287109  0.8413789868354797 22.2143497467041016
  3.4526140689849854  8.8079996109008789 22.3164844512939453
  1.3570319414138794  3.9970409870147705 22.3164844512939453
  8.3055276870727539  3.4014058113098145 22.6443843841552734
  6.1234102249145508  8.2123651504516602 22.6443843841552734
  1.1947352886199951  1.3825156688690186 22.7290954589843750
  3.6149106025695801  6.1934747695922852 22.7290954589843750
  6.0043811798095703  3.4284434318542480 24.3059215545654297
  8.4245567321777344  8.2394027709960938 24.3059215545654297
  3.4958815574645996  1.4095532894134521 24.3906326293945312
  1.3137644529342651  6.2205123901367188 24.3906326293945312
  8.2622604370117188  5.6248769760131836 24.7185325622558594
  6.1666779518127441  0.8139180541038513 24.7185325622558594
  3.3695130348205566  3.9695799350738525 24.8206653594970703
  1.4401330947875977  8.7805385589599609 24.8206653594970703
  8.7750835418701172  1.2490308284759521 24.8694286346435547
  5.6538543701171875  6.0599899291992188 24.8694286346435547
  4.0224609375000000  8.3884840011596680 24.9247665405273438
  0.7871851325035095  3.5775253772735596 24.9247665405273438
  5.5968313217163086  3.5775253772735596 26.9097404479980469
  8.8321065902709961  8.3884840011596680 26.9097404479980469
  0.8442083001136780  6.0599899291992188 26.9650783538818359
  3.9654376506805420  1.2490308284759521 26.9650783538818359
  8.1791591644287109  3.9695799350738525 27.0138416290283203
  6.2497792243957520  8.7805385589599609 27.0138416290283203
  3.4526140689849854  5.6248769760131836 27.1159744262695312
  1.3570319414138794  0.8139180541038513 27.1159744262695312
  6.1234102249145508  6.2205123901367188 27.4438762664794922
  8.3055276870727539  1.4095532894134521 27.4438762664794922
  1.1947352886199951  3.4284434318542480 27.5285873413085938
  3.6149106025695801  8.2394027709960938 27.5285873413085938
  6.0043811798095703  1.3825156688690186 29.1054115295410156
  8.4245567321777344  6.1934747695922852 29.1054115295410156
  1.3137644529342651  8.2123651504516602 29.1901226043701172
  3.4958815574645996  3.4014058113098145 29.1901226043701172
  6.1666779518127441  3.9970409870147705 29.5180244445800781
  8.2622604370117188  8.8079996109008789 29.5180244445800781
  3.3695130348205566  0.8413789868354797 29.6201572418212891
  1.4401330947875977  5.6523380279541016 29.6201572418212891
  5.6538543701171875  8.3728876113891602 29.6689205169677734
  8.7750835418701172  3.5619282722473145 29.6689205169677734
  0.7871851325035095  1.2334337234497070 29.7242584228515625
  4.0224609375000000  6.0443925857543945 29.7242584228515625
  8.8321065902709961  6.0443925857543945 31.7092323303222656
  5.5968313217163086  1.2334337234497070 31.7092323303222656
  3.9654376506805420  3.5619282722473145 31.7645702362060547
  0.8442083001136780  8.3728876113891602 31.7645702362060547
  6.2497792243957520  5.6523380279541016 31.8133335113525391
  8.1791591644287109  0.8413789868354797 31.8133335113525391
  3.4526140689849854  8.8079996109008789 31.9154663085937500
  1.3570319414138794  3.9970409870147705 31.9154663085937500
  8.3055276870727539  3.4014058113098145 32.2433662414550781
  6.1234102249145508  8.2123651504516602 32.2433662414550781
  1.1947352886199951  1.3825156688690186 32.3280792236328125
  3.6149106025695801  6.1934747695922852 32.3280792236328125
