Mn O 
 1.0000000000000000
     9.6192922592163086    0.0000000000000000    0.0000000000000000
     0.0000000000000000    9.6219177246093750    0.0000000000000000
     0.0000000000000000    0.0000000000000000   47.9949150085449219
 Mn  O  
  56  72
Cartesian
  7.4742107391357422  2.5866825580596924 18.9244747161865234
  6.9517221450805664  7.3915467262268066 18.9298992156982422
  5.3006196022033691  0.4313965737819672 18.8358154296875000
  9.3852596282958984 -0.0051263654604554 18.8034934997558594
  5.0395565032958984  4.8057389259338379 18.8029136657714844
  9.1330814361572266  5.2419447898864746 18.8347263336181641
  2.4828898906707764  7.2069005966186523 18.7830085754394531
  2.3276410102844238  2.3933615684509277 18.7815208435058594
  4.7059826850891113  2.3281846046447754 21.0869903564453125
  0.1032379940152168  7.1395707130432129 21.0876979827880859
  7.3241477012634277  4.5323734283447266 21.2880764007568359
  7.1054525375366211  9.3445482254028320 21.2894001007080078
  2.6023457050323486  5.0212230682373047 21.0338802337646484
  2.2064120769500732  0.2097517549991608 21.0323715209960938
  4.7286486625671387  7.3156986236572266 21.3900680541992188
  0.0797668248414993  2.5041704177856445 21.3900661468505859
  7.1619997024536133  6.7519130706787109 23.5316677093505859
  7.2667198181152344  1.9417824745178223 23.5311870574951172
  9.5468578338623047  4.7541074752807617 23.5405025482177734
  0.1269155889749527  0.0056290146894753 23.5131416320800781
  4.8822102546691895  9.5642948150634766 23.5396919250488281
  4.6830039024353027  4.8173427581787109 23.5133266448974609
  2.3870451450347900  2.8081209659576416 23.5194416046142578
  2.4229180812835693  7.6197700500488281 23.5193672180175781
  4.8235039710998535  2.3418581485748291 25.5412712097167969
  9.6049232482910156  7.1525411605834961 25.5405445098876953
  7.5965023040771484  9.5149707794189453 25.8666839599609375
  6.8321561813354492  4.7050261497497559 25.8653011322021484
  2.7868835926055908  9.5154619216918945 25.9681491851806641
  2.0227901935577393  4.7049055099487305 25.9692459106445312
  0.0137983933091164  2.3418304920196533 26.2940330505371094
  4.7953567504882812  7.1522765159606934 26.2937984466552734
  7.1965909004211426  2.8080711364746094 28.3150100708007812
  7.2327260971069336  7.6198644638061523 28.3149147033691406
  4.9366092681884766  0.0057772882282734 28.3216075897216797
  0.0725292712450027  9.5645227432250977 28.2943172454833984
  4.7368659973144531  4.7539467811584473 28.2940902709960938
  9.4927692413330078  4.8171133995056152 28.3208312988281250
  2.3522930145263672  6.7520561218261719 28.3027229309082031
  2.4569597244262695  1.9413570165634155 28.3031349182128906
  4.8898415565490723  2.5043740272521973 30.4446926116943359
  9.5388374328613281  7.3149456977844238 30.4445495605468750
  7.4120454788208008  5.0217804908752441 30.7998523712158203
  7.0163440704345703  0.2098739445209503 30.8015632629394531
  2.5138144493103027  4.5329408645629883 30.5460910797119141
  2.2961673736572266  9.3442659378051758 30.5457267761230469
  4.9128465652465820  7.1396489143371582 30.7471218109130859
  9.5164909362792969  2.3287706375122070 30.7470741271972656
  7.2928676605224609  7.2044196128845215 33.0525016784667969
  7.1368975639343262  2.3961985111236572 33.0522689819335938
  0.2313384860754013  4.8058233261108398 33.0315971374511719
  0.4880394041538239  0.4311390817165375 32.9990043640136719
  4.5785722732543945 -0.0050374590791762 33.0309219360351562
  4.3213996887207031  5.2417516708374023 32.9990730285644531
  2.6648561954498291  2.5833697319030762 32.9080390930175781
  2.1434841156005859  7.3951654434204102 32.9075965881347656
  7.2437715530395508  0.7322958111763000 18.3373756408691406
  7.1880402565002441  5.5378513336181641 18.3359870910644531
  1.4832217693328857  8.7640981674194336 18.3558712005615234
  3.3253631591796875  3.9516618251800537 18.3513545989990234
  6.0660734176635742  3.5168924331665039 20.0846672058105469
  8.3615541458129883  8.3258867263793945 20.0833091735839844
  3.6790935993194580  1.1283099651336670 19.7144451141357422
  1.1324672698974609  5.9397397041320801 19.7162742614746094
  5.6971421241760254  8.4698629379272461 20.0830211639404297
  8.7326812744140625  3.6604225635528564 20.0839538574218750
  0.7870345711708069  1.5468394756317139 19.8050785064697266
  4.0230293273925781  6.3571424484252930 19.8038444519042969
  8.5225296020507812  5.8615674972534180 22.0077743530273438
  5.9066805839538574  1.0497254133224487 22.0068664550781250
  3.8267571926116943  3.7025284767150879 22.1457157135009766
  0.9832665324211121  8.5116119384765625 22.1466312408447266
  6.0070176124572754  5.5325808525085449 22.2555751800537109
  8.4198722839355469  0.7206552028656006 22.2553901672363281
  3.5674765110015869  8.9233570098876953 22.3328666687011719
  1.2428261041641235  4.1120405197143555 22.3342781066894531
  8.3323755264282227  3.2860410213470459 22.6935062408447266
  6.0961456298828125  8.0966119766235352 22.6916942596435547
  1.3844703435897827  1.5405765771865845 22.4981575012207031
  3.4264261722564697  6.3513278961181641 22.4973888397216797
  6.0602831840515137  3.2810285091400146 24.2849636077880859
  8.3673782348632812  8.0924167633056641 24.2847194671630859
  3.6003324985504150  1.4087244272232056 24.2924404144287109
  1.2099877595901489  6.2200770378112793 24.2919273376464844
  8.1833429336547852  5.5244970321655273 24.7300415039062500
  6.2447328567504883  0.7123122215270996 24.7302169799804688
  3.3908081054687500  3.9955220222473145 24.7705326080322266
  1.4194527864456177  8.8063316345214844 24.7704696655273438
  8.8636417388916016  1.1498013734817505 24.8986473083496094
  5.5650939941406250  5.9607057571411133 24.8985157012939453
  3.9823563098907471  8.3027639389038086 24.9641590118408203
  0.8263648748397827  3.4928040504455566 24.9637241363525391
  5.6365246772766113  3.4923441410064697 26.8704071044921875
  8.7925252914428711  8.3035659790039062 26.8701744079589844
  0.7554525136947632  5.9607262611389160 26.9354991912841797
  4.0536899566650391  1.1502493619918823 26.9359130859375000
  8.2001399993896484  3.9956982135772705 27.0640087127685547
  6.2293057441711426  8.8069715499877930 27.0641651153564453
  3.3733544349670410  5.5238447189331055 27.1044998168945312
  1.4357072114944458  0.7124727964401245 27.1045093536376953
  6.0194354057312012  6.2199420928955078 27.5426063537597656
  8.4100122451782227  1.4091917276382446 27.5419082641601562
  1.2505578994750977  3.2810323238372803 27.5492820739746094
  3.5585434436798096  8.0923280715942383 27.5500984191894531
  6.1938323974609375  1.5404887199401855 29.3365974426269531
  8.2363891601562500  6.3513369560241699 29.3361797332763672
  1.2867996692657471  8.0970144271850586 29.1424255371093750
  3.5226411819458008  3.2863271236419678 29.1416473388671875
  6.0523891448974609  4.1120033264160156 29.5005073547363281
  8.3774766921997070  8.9230413436889648 29.5011634826660156
  3.6105349063873291  0.7209791541099548 29.5795326232910156
  1.1980432271957397  5.5323605537414551 29.5788059234619141
  5.7928085327148438  8.5118370056152344 29.6878013610839844
  8.6364097595214844  3.7018132209777832 29.6880245208740234
  1.0969465970993042  1.0500786304473877 29.8274364471435547
  3.7128620147705078  5.8616027832031250 29.8270378112792969
  8.8327379226684570  6.3563570976257324 32.0295867919921875
  5.5967078208923340  1.5475925207138062 32.0303611755371094
  3.9222226142883301  3.6593604087829590 31.7510833740234375
  0.8867753148078918  8.4701175689697266 31.7515220642089844
  5.9413633346557617  5.9392914772033691 32.1186294555664062
  8.4876966476440430  1.1303321123123169 32.1189155578613281
  3.5525183677673340  8.3269348144531250 31.7513046264648438
  1.2571629285812378  3.5167880058288574 31.7505874633789062
  8.1354179382324219  3.9537672996520996 33.4844245910644531
  6.2952651977539062  8.7636384963989258 33.4787025451660156
  2.4322259426116943  0.7292374968528748 33.4976730346679688
  2.3773744106292725  5.5405268669128418 33.4980468750000000
