Cu O 
 1.0000000000000000
     9.3401937484741211    0.0000000000000000    0.0000000000000000
     0.0000000000000000    9.3401937484741211    0.0000000000000000
     0.0000000000000000    0.0000000000000000   46.7009696960449219
 Cu  O  
  56  88
Cartesian
 -0.0004162924597040  2.3354630470275879 17.0373077392578125
  4.6700177192687988  7.0053200721740723 17.0364913940429688
  6.7450175285339355  4.4541358947753906 17.3692665100097656
  2.5946676731109619  0.2159656435251236 17.3684368133544922
  2.0752406120300293  4.8856639862060547 17.3680973052978516
  7.2650542259216309  9.1245679855346680 17.3686504364013672
  4.6699171066284180  2.3353240489959717 17.6193122863769531
 -0.0001078792411136  7.0053591728210449 17.6195182800292969
  2.3379449844360352  2.3267419338226318 19.5993289947509766
  4.2765684127807617  4.6673922538757324 19.6080532073974609
  0.3939138948917389 -0.0026155344676226 19.6085968017578125
  8.9456253051757812  4.6736674308776855 19.6095809936523438
  2.3324656486511230  6.9966678619384766 19.5991001129150391
  7.0024127960205078  2.3437938690185547 19.5999736785888672
  5.0641326904296875  0.0032530962489545 19.6089286804199219
  7.0075516700744629  7.0139398574829102 19.5994243621826172
  4.6708092689514160  7.0045404434204102 21.6133728027343750
 -0.0001265596220037  2.3351714611053467 21.6135959625244141
  7.0259733200073242  0.2989968061447144 21.9485473632812500
  2.3147242069244385  4.3704242706298828 21.9486865997314453
  2.3562774658203125  9.0403738021850586 21.9482364654541016
  6.9844999313354492  4.9698033332824707 21.9479198455810547
 -0.0005853499751538  7.0054774284362793 22.2711582183837891
  4.6696457862854004  2.3338811397552490 22.2709102630615234
  4.3772635459899902  0.0008196020498872 24.2863025665283203
  7.0056643486022949  2.3354899883270264 24.2841300964355469
  2.3356702327728271  7.0052604675292969 24.2847347259521484
  0.2932240962982178  4.6712675094604492 24.2866935729980469
  2.3352532386779785  2.3351533412933350 24.2850418090820312
  7.0052247047424316  7.0049223899841309 24.2851715087890625
  9.0467357635498047 -0.0007461881032214 24.2853698730468750
  4.9642524719238281  4.6704301834106445 24.2857532501220703
  0.0002429384476272  2.3361876010894775 26.2972736358642578
  4.6695885658264160  7.0055670738220215 26.2968311309814453
  6.9856748580932617  4.3715333938598633 26.6202220916748047
  2.3546051979064941  0.2986541092395782 26.6198520660400391
  2.3152570724487305  4.9693045616149902 26.6207618713378906
  7.0241508483886719  9.0411691665649414 26.6202220916748047
  4.6705508232116699  2.3341188430786133 26.9572925567626953
 -0.0001824139908422  7.0046024322509766 26.9572086334228516
  2.3328049182891846  2.3431720733642578 28.9703273773193359
  4.2749423980712891  4.6730155944824219 28.9589691162109375
  0.3948766887187958  0.0027639502659440 28.9599418640136719
  8.9453525543212891  4.6664505004882812 28.9593925476074219
  2.3375036716461182  7.0128836631774902 28.9702415466308594
  7.0078382492065430  2.3268690109252930 28.9697456359863281
  5.0643806457519531 -0.0031315803062171 28.9603996276855469
  7.0024719238281250  6.9964866638183594 28.9693145751953125
  4.6701016426086426  7.0059571266174316 30.9497623443603516
 -0.0002689041721169  2.3350896835327148 30.9494705200195312
  7.2634339332580566  0.2164801061153412 31.2015304565429688
  2.0754797458648682  4.4533300399780273 31.1995162963867188
  2.5941498279571533  9.1231765747070312 31.1992321014404297
  6.7453970909118652  4.8864660263061523 31.2015304565429688
  0.0007757965358905  7.0045599937438965 31.5325546264648438
  4.6689300537109375  2.3344361782073975 31.5335197448730469
  5.7059612274169922  5.6475820541381836 16.4936504364013672
  1.0355368852615356  3.6921398639678955 16.4931735992431641
  3.6342368125915527  8.3616514205932617 16.4933242797851562
  8.3044452667236328  0.9781214594841003 16.4931812286376953
  3.6917920112609863  1.3611526489257812 16.3889522552490234
  0.9785085916519165  6.0317430496215820 16.3891773223876953
  8.3619785308837891  7.9792203903198242 16.3889942169189453
  5.6485657691955566  3.3088519573211670 16.3891124725341797
  3.3441712856292725  6.1011700630187988 18.0974731445312500
  8.0135011672973633  3.2382633686065674 18.0986995697021484
  1.3256045579910278  1.4312529563903809 18.0978298187255859
  5.9959130287170410  7.9084677696228027 18.0975360870361328
  1.6145126819610596  8.3532676696777344 18.4155445098876953
  6.2857360839843750  0.9864152669906616 18.4159412384033203
  7.7248024940490723  5.6571173667907715 18.4155368804931641
  3.0557198524475098  3.6835379600524902 18.4156246185302734
  5.5222549438476562  3.4546678066253662 18.9209213256835938
  8.4879837036132812  8.1258697509765625 18.9203109741210938
  3.8182718753814697  1.2149615287780762 18.9197864532470703
  0.8516693115234375  5.8851394653320312 18.9207763671875000
  3.7537233829498291  8.1741876602172852 20.3572635650634766
  5.5871567726135254  5.8361058235168457 20.3568687438964844
  0.9161181449890137  3.5034542083740234 20.3574161529541016
  8.4233627319335938  1.1668741703033447 20.3573055267333984
  3.0972445011138916  5.6561598777770996 20.7873554229736328
  1.5728851556777954  0.9854328036308289 20.7875385284423828
  6.2441344261169434  8.3548498153686523 20.7875041961669922
  7.7662806510925293  3.6840479373931885 20.7871990203857422
  5.8496427536010742  1.5185079574584961 21.0060253143310547
  3.4926924705505371  3.1519780158996582 21.0063133239746094
  1.1785613298416138  7.8220100402832031 21.0066967010498047
  8.1610612869262695  6.1877326965332031 21.0066089630126953
  1.1231203079223633  3.1418030261993408 22.9014453887939453
  8.2173213958740234  1.5264408588409424 22.9012260437011719
  3.5479297637939453  7.8139109611511230 22.9015140533447266
  5.7941074371337891  6.1970849037170410 22.9014568328857422
  1.5024048089981079  5.6475901603698730 23.0767726898193359
  3.1674573421478271  0.9777849316596985 23.0770778656005859
  7.8371791839599609  8.3621616363525391 23.0770053863525391
  6.1737132072448730  3.6920332908630371 23.0763320922851562
  3.6829388141632080  3.5323762893676758 23.4935951232910156
  8.3527441024780273  5.8076939582824707 23.4937763214111328
  5.6582155227661133  1.1371864080429077 23.4932537078857422
  0.9875862598419189  8.2032852172851562 23.4923572540283203
  8.3527688980102539  3.5323047637939453 25.0761489868164062
  0.9878611564636230  1.1374927759170532 25.0757064819335938
  5.6582255363464355  8.2023696899414062 25.0752506256103516
  3.6828348636627197  5.8081464767456055 25.0768795013427734
  6.1741514205932617  5.6480393409729004 25.4920082092285156
  1.5035121440887451  3.6926002502441406 25.4920406341552734
  3.1688084602355957  8.3627586364746094 25.4931354522705078
  7.8374376296997070  0.9780099391937256 25.4923915863037109
  3.5467910766601562  1.5261608362197876 25.6682548522949219
  1.1232687234878540  6.1959547996520996 25.6683864593505859
  8.2175502777099609  7.8130292892456055 25.6672878265380859
  5.7931866645812988  3.1429879665374756 25.6677932739257812
  3.4906673431396484  6.1880245208740234 27.5630016326904297
  8.1609420776367188  3.1515274047851562 27.5626869201660156
  1.1787618398666382  1.5192399024963379 27.5621318817138672
  5.8493804931640625  7.8223371505737305 27.5630893707275391
  1.5738395452499390  8.3543758392333984 27.7803440093994141
  6.2423396110534668  0.9867849349975586 27.7812385559082031
  7.7675390243530273  5.6565394401550293 27.7812328338623047
  3.0956933498382568  3.6842730045318604 27.7804317474365234
  5.5855269432067871  3.5035157203674316 28.2115001678466797
  8.4238548278808594  8.1735534667968750 28.2119045257568359
  3.7544770240783691  1.1665173768997192 28.2124137878417969
  0.9165598750114441  5.8365187644958496 28.2126293182373047
  8.4869117736816406  1.2134367227554321 29.6487636566162109
  3.8166880607604980  8.1261177062988281 29.6484451293945312
  5.5223340988159180  5.8840150833129883 29.6481914520263672
  0.8521438837051392  3.4554963111877441 29.6480388641357422
  3.0537931919097900  5.6550841331481934 30.1525573730468750
  1.6154090166091919  0.9848114848136902 30.1524391174316406
  6.2850718498229980  8.3545713424682617 30.1523799896240234
  7.7246541976928711  3.6842439174652100 30.1520442962646484
  3.3451852798461914  3.2380778789520264 30.4686832427978516
  5.9951806068420410  1.4333850145339966 30.4691181182861328
  1.3256639242172241  7.9072308540344238 30.4698772430419922
  8.0142116546630859  6.1028485298156738 30.4698715209960938
  0.9760811924934387  3.3095333576202393 32.1789817810058594
  8.3643598556518555  1.3612971305847168 32.1787490844726562
  3.6929748058319092  7.9801816940307617 32.1792793273925781
  5.6464619636535645  6.0323624610900879 32.1792068481445312
  1.0359559059143066  5.6489868164062500 32.0772552490234375
  3.6333150863647461  0.9789820909500122 32.0767936706542969
  8.3025493621826172  8.3613567352294922 32.0770187377929688
  5.7069487571716309  3.6919667720794678 32.0768051147460938
