Cu O 
 1.0000000000000000
     9.3401937484741211    0.0000000000000000    0.0000000000000000
     0.0000000000000000    9.3401937484741211    0.0000000000000000
     0.0000000000000000    0.0000000000000000   46.7009696960449219
 Cu  O  
  56  88
Cartesian
  0.0000283007884718  2.3351793289184570 16.9513931274414062
  4.6705121994018555  7.0051889419555664 16.9393959045410156
  6.8801169395446777  4.3875041007995605 17.2470073699951172
  2.4616620540618896  0.2820347249507904 17.2468013763427734
  2.2053804397583008  4.9516143798828125 17.2485561370849609
  7.1330370903015137  9.0583992004394531 17.2488822937011719
  4.6719536781311035  2.3363974094390869 17.5376644134521484
 -0.0003318570961710  7.0050191879272461 17.5393505096435547
  2.3430230617523193  2.3210203647613525 19.6023616790771484
  4.3548398017883301  4.6627645492553711 19.6186962127685547
  0.3148377537727356 -0.0096810180693865 19.6199626922607422
  9.0247573852539062  4.6783328056335449 19.6201572418212891
  2.3259415626525879  6.9930043220520020 19.6051158905029297
  6.9971456527709961  2.3468029499053955 19.6035652160644531
  4.9851784706115723  0.0084807090461254 19.6190414428710938
  7.0133304595947266  7.0173578262329102 19.6040611267089844
  4.6690893173217773  7.0040736198425293 21.6362266540527344
 -0.0029165688902140  2.3350303173065186 21.6351280212402344
  6.9903841018676758  0.3140179812908173 21.9518699645996094
  2.3483955860137939  4.3529548645019531 21.9546318054199219
  2.3224830627441406  9.0264358520507812 21.9524631500244141
  7.0184702873229980  4.9850111007690430 21.9563922882080078
 -0.0004885855596513  7.0047445297241211 22.2716674804687500
  4.6698927879333496  2.3346800804138184 22.2718334197998047
  4.3499126434326172  0.0042455852963030 24.2855701446533203
  7.0043973922729492  2.3343904018402100 24.2821006774902344
  2.3345699310302734  7.0037832260131836 24.2839546203613281
  0.3210561871528625  4.6702766418457031 24.2853240966796875
  2.3365643024444580  2.3320295810699463 24.2854785919189453
  7.0083785057067871  7.0068235397338867 24.2841796875000000
  9.0211219787597656 -0.0040335627272725 24.2859344482421875
  4.9894490242004395  4.6684703826904297 24.2847690582275391
  0.0025834043044597  2.3313589096069336 26.2963008880615234
  4.6724109649658203  7.0042247772216797 26.2946529388427734
  7.0206570625305176  4.3489699363708496 26.6175689697265625
  2.3192596435546875  0.3159676492214203 26.6184291839599609
  2.3491072654724121  4.9869656562805176 26.6210212707519531
  6.9926128387451172  9.0238971710205078 26.6182174682617188
  4.6683154106140137  2.3335142135620117 26.9366512298583984
  0.0012298233341426  7.0050044059753418 26.9340114593505859
  2.3257400989532471  2.3455324172973633 28.9679832458496094
  4.3536977767944336  4.6815462112426758 28.9531974792480469
  0.3153730630874634  0.0093990368768573 28.9499301910400391
  9.0238790512084961  4.6600546836853027 28.9514732360839844
  2.3431231975555420  7.0154743194580078 28.9656219482421875
  7.0130453109741211  2.3216087818145752 28.9702796936035156
  4.9862251281738281 -0.0106789236888289 28.9531211853027344
  6.9956407546997070  6.9945440292358398 28.9656581878662109
  4.6688637733459473  7.0059218406677246 31.0386104583740234
  0.0000500634414493  2.3348028659820557 31.0370655059814453
  7.1300783157348633  0.2768794894218445 31.3225460052490234
  2.2100172042846680  4.3933520317077637 31.3211212158203125
  2.4585907459259033  9.0620851516723633 31.3235034942626953
  6.8768939971923828  4.9471139907836914 31.3225345611572266
 -0.0004835418367293  7.0047149658203125 31.5981864929199219
  4.6692728996276855  2.3349261283874512 31.6284656524658203
  6.1126923561096191  5.6845302581787109 16.2748203277587891
  1.4454654455184937  3.6560606956481934 16.2753524780273438
  3.2270107269287109  8.3250322341918945 16.2748699188232422
  7.8943858146667480  1.0131952762603760 16.2760124206542969
  3.4903492927551270  1.5011934041976929 16.3749351501464844
  1.1820974349975586  6.1702971458435059 16.3708229064941406
  8.1575689315795898  7.8418121337890625 16.3700504302978516
  5.8509001731872559  3.1688613891601562 16.3756027221679688
  3.4866452217102051  6.1686716079711914 18.1433010101318359
  8.1654491424560547  3.1721160411834717 18.1341724395751953
  1.1802554130554199  1.5041410923004150 18.1443481445312500
  5.8540897369384766  7.8413605690002441 18.1414184570312500
  1.5340408086776733  8.3998355865478516 18.4009742736816406
  6.2028307914733887  0.9325633645057678 18.3908023834228516
  7.8052062988281250  5.6097245216369629 18.3989486694335938
  3.1347181797027588  3.7263345718383789 18.4011974334716797
  5.5935707092285156  3.5050907135009766 18.8463401794433594
  8.4088382720947266  8.1742153167724609 18.8456287384033203
  3.7348120212554932  1.1721762418746948 18.8487548828125000
  0.9332061409950256  5.8379125595092773 18.8470916748046875
  3.7017974853515625  8.1969375610351562 20.4169578552246094
  5.6389155387878418  5.8084993362426758 20.4170551300048828
  0.9775078296661377  3.5302190780639648 20.4196166992187500
  8.3793010711669922  1.1353658437728882 20.4192447662353516
  3.1327826976776123  5.6358294486999512 20.8146171569824219
  1.5384780168533325  0.9733736515045166 20.8085193634033203
  6.2083821296691895  8.3724279403686523 20.8139724731445312
  7.8047327995300293  3.7099697589874268 20.8184185028076172
  5.8133330345153809  1.5267586708068848 20.9904346466064453
  3.5182552337646484  3.1434814929962158 20.9790458679199219
  1.1476284265518188  7.8117971420288086 20.9811954498291016
  8.1928415298461914  6.1990132331848145 20.9817886352539062
  1.1353811025619507  3.1545467376708984 22.9259929656982422
  8.1976766586303711  1.5244710445404053 22.9353981018066406
  3.5288951396942139  7.8141555786132812 22.9364147186279297
  5.8058152198791504  6.1911334991455078 22.9206504821777344
  1.5313347578048706  5.6496887207031250 23.0865154266357422
  3.1419765949249268  0.9705457091331482 23.0826950073242188
  7.8122572898864746  8.3727035522460938 23.0769386291503906
  6.2038879394531250  3.6868469715118408 23.0864124298095703
  3.6826004981994629  3.5377535820007324 23.4679718017578125
  8.3611755371093750  5.7967071533203125 23.4721145629882812
  5.6637773513793945  1.1399664878845215 23.4782905578613281
  0.9938282966613770  8.1967201232910156 23.4773654937744141
  8.3412237167358398  3.5385997295379639 25.1008872985839844
  0.9831631779670715  1.1343686580657959 25.0943069458007812
  5.6464872360229492  8.2062473297119141 25.1001205444335938
  3.6781923770904541  5.8165078163146973 25.0941200256347656
  6.1858634948730469  5.6460309028625488 25.5019130706787109
  1.5158939361572266  3.6918702125549316 25.4856872558593750
  3.1497170925140381  8.3465967178344727 25.4833660125732422
  7.8157963752746582  0.9926806688308716 25.4818840026855469
  3.5402460098266602  1.5219076871871948 25.6419887542724609
  1.1407876014709473  6.1931929588317871 25.6256637573242188
  8.2073554992675781  7.8189740180969238 25.6413822174072266
  5.8126392364501953  3.1483905315399170 25.6351280212402344
  3.5343623161315918  6.1992516517639160 27.5806503295898438
  8.1900520324707031  3.1458914279937744 27.5905532836914062
  1.1443730592727661  1.5329096317291260 27.5915641784667969
  5.8104686737060547  7.8087272644042969 27.5897674560546875
  1.5350909233093262  8.3791494369506836 27.7575969696044922
  6.2010850906372070  0.9742969274520874 27.7598323822021484
  7.8037543296813965  5.6361799240112305 27.7587184906005859
  3.1396555900573730  3.6969904899597168 27.7561283111572266
  5.6439428329467773  3.5315694808959961 28.1469440460205078
  8.3678293228149414  8.2017917633056641 28.1599826812744141
  3.7055563926696777  1.1390346288681030 28.1554012298583984
  0.9604212045669556  5.8011789321899414 28.1555099487304688
  8.4107589721679688  1.1737117767333984 29.7246265411376953
  3.7478878498077393  8.1748914718627930 29.7270259857177734
  5.6024117469787598  5.8403244018554688 29.7264480590820312
  0.9255377650260925  3.5007631778717041 29.7275352478027344
  3.1344270706176758  5.5973234176635742 30.1855716705322266
  1.5356118679046631  0.9340085387229919 30.1788063049316406
  6.2081265449523926  8.4061183929443359 30.1774616241455078
  7.8067011833190918  3.7346229553222656 30.1760177612304688
  3.4866602420806885  3.1762607097625732 30.4381618499755859
  5.8551449775695801  1.4957113265991211 30.4347972869873047
  1.1686021089553833  7.8415741920471191 30.4515800476074219
  8.1677341461181641  6.1709647178649902 30.4421596527099609
  1.1875379085540771  3.1703021526336670 32.1732177734375000
  8.1533622741699219  1.5006096363067627 32.1721229553222656
  3.4835345745086670  7.8383827209472656 32.1735763549804688
  5.8573741912841797  6.1714787483215332 32.1733055114746094
  1.4379115104675293  5.6807513236999512 32.2726440429687500
  3.2333297729492188  1.0109053850173950 32.2716102600097656
  7.9027032852172852  8.3288583755493164 32.2723693847656250
  6.1088223457336426  3.6599133014678955 32.2717361450195312
