Cu O 
 1.0000000000000000
     9.3401937484741211    0.0000000000000000    0.0000000000000000
     0.0000000000000000    9.3401937484741211    0.0000000000000000
     0.0000000000000000    0.0000000000000000   46.7009696960449219
 Cu  O  
  56  88
Cartesian
 -0.0000699580559740  2.3346819877624512 16.9258308410644531
  4.6702013015747070  7.0049734115600586 16.9303874969482422
  6.9503555297851562  4.3685798645019531 17.2533264160156250
  2.3906722068786621  0.3015930950641632 17.2536888122558594
  2.2790398597717285  4.9714784622192383 17.2526226043701172
  7.0606350898742676  9.0380525588989258 17.2524852752685547
  4.6696267127990723  2.3346176147460938 17.5633106231689453
 -0.0004338520229794  7.0056090354919434 17.5617580413818359
  2.3354973793029785  2.3303596973419189 19.6087474822998047
  4.3522043228149414  4.6651258468627930 19.6101837158203125
  0.3165982961654663 -0.0044549922458827 19.6101799011230469
  9.0236396789550781  4.6751494407653809 19.6100025177001953
  2.3325514793395996  7.0011620521545410 19.6075458526611328
  7.0041046142578125  2.3395814895629883 19.6088123321533203
  4.9876737594604492  0.0045287800021470 19.6101646423339844
  7.0072860717773438  7.0094804763793945 19.6072044372558594
  4.6703824996948242  7.0048108100891113 21.6320037841796875
  0.0000504370473209  2.3345336914062500 21.6328582763671875
  7.0035629272460938  0.3154059350490570 21.9496078491210938
  2.3368546962738037  4.3540363311767578 21.9488792419433594
  2.3325061798095703  9.0244035720825195 21.9483718872070312
  7.0067968368530273  4.9860076904296875 21.9484214782714844
  0.0000465141674795  7.0048465728759766 22.2637214660644531
  4.6706409454345703  2.3350841999053955 22.2640705108642578
  4.3539967536926270 -0.0002621792373247 24.2835292816162109
  7.0046372413635254  2.3342704772949219 24.2836132049560547
  2.3344535827636719  7.0047793388366699 24.2844734191894531
  0.3158612549304962  4.6703133583068848 24.2844963073730469
  2.3352310657501221  2.3359823226928711 24.2835769653320312
  7.0056796073913574  7.0048317909240723 24.2837886810302734
  9.0240030288696289 -0.0000545467337361 24.2835865020751953
  4.9861893653869629  4.6698923110961914 24.2844715118408203
 -0.0007594511844218  2.3358471393585205 26.3029308319091797
  4.6693501472473145  7.0040950775146484 26.3043632507324219
  7.0060758590698242  4.3524122238159180 26.6190795898437500
  2.3335437774658203  0.3180114626884460 26.6190567016601562
  2.3369605541229248  4.9872498512268066 26.6202335357666016
  7.0040273666381836  9.0220918655395508 26.6193981170654297
  4.6709809303283691  2.3360793590545654 26.9358291625976562
  0.0013806674396619  7.0042614936828613 26.9354934692382812
  2.3360438346862793  2.3401012420654297 28.9597301483154297
  4.3517494201660156  4.6742978096008301 28.9583816528320312
  0.3202737569808960  0.0034130003768951 28.9581813812255859
  9.0212202072143555  4.6658806800842285 28.9575691223144531
  2.3360762596130371  7.0074777603149414 28.9593544006347656
  7.0053129196166992  2.3311433792114258 28.9593791961669922
  4.9887442588806152 -0.0036273577716202 28.9593658447265625
  7.0047173500061035  7.0010223388671875 28.9606609344482422
  4.6693639755249023  7.0057358741760254 31.0017642974853516
 -0.0004509445570875  2.3348572254180908 31.0019607543945312
  7.0630936622619629  0.3020258247852325 31.3143692016601562
  2.2774634361267090  4.3689374923706055 31.3142623901367188
  2.3939495086669922  9.0379056930541992 31.3153476715087891
  6.9476890563964844  4.9718441963195801 31.3156280517578125
  0.0000542665256944  7.0055966377258301 31.6315593719482422
  4.6702508926391602  2.3351261615753174 31.6383266448974609
  6.1733298301696777  5.6413440704345703 16.2046699523925781
  1.5041362047195435  3.6994512081146240 16.2046089172363281
  3.1663198471069336  8.3693246841430664 16.2044544219970703
  7.8367261886596680  0.9708155393600464 16.2051963806152344
  3.5158998966217041  1.5174521207809448 16.3502864837646484
  1.1548315286636353  6.1871304512023926 16.3510608673095703
  8.1857328414916992  7.8227705955505371 16.3503990173339844
  5.8236656188964844  3.1523451805114746 16.3504123687744141
  3.5089156627655029  6.1845440864562988 18.2179679870605469
  8.1753873825073242  3.1556322574615479 18.2184047698974609
  1.1640573740005493  1.5134972333908081 18.2150840759277344
  5.8301277160644531  7.8261971473693848 18.2159519195556641
  1.5313920974731445  8.3816833496093750 18.4105873107910156
  6.1987152099609375  0.9601626992225647 18.4121017456054688
  7.8100633621215820  5.6264696121215820 18.4101657867431641
  3.1424791812896729  3.7138104438781738 18.4093990325927734
  5.6229157447814941  3.5177741050720215 18.8251075744628906
  8.3885564804077148  8.1886701583862305 18.8254566192626953
  3.7200968265533447  1.1502786874771118 18.8239841461181641
  0.9540129899978638  5.8220353126525879 18.8252754211425781
  3.7021608352661133  8.2015686035156250 20.4171333312988281
  5.6361327171325684  5.8071365356445312 20.4178295135498047
  0.9658622741699219  3.5324141979217529 20.4173889160156250
  8.3714323043823242  1.1407344341278076 20.4154129028320312
  3.1363971233367920  5.6414332389831543 20.8121757507324219
  1.5350396633148193  0.9682549238204956 20.8152713775634766
  6.2031993865966797  8.3709697723388672 20.8128585815429688
  7.8042287826538086  3.6987769603729248 20.8131828308105469
  5.8110780715942383  1.5332508087158203 20.9785766601562500
  3.5305063724517822  3.1385695934295654 20.9815063476562500
  1.1421767473220825  7.8066625595092773 20.9810085296630859
  8.1989240646362305  6.2024369239807129 20.9828796386718750
  1.1390112638473511  3.1358525753021240 22.9197235107421875
  8.2039899826049805  1.5344156026840210 22.9168357849121094
  3.5324652194976807  7.8073134422302246 22.9189052581787109
  5.8083562850952148  6.2036070823669434 22.9186019897460938
  1.5345804691314697  5.6392321586608887 23.0876426696777344
  3.1357655525207520  0.9703204631805420 23.0889949798583984
  7.8053731918334961  8.3699550628662109 23.0888118743896484
  6.2042632102966309  3.7035310268402100 23.0860557556152344
  3.6983499526977539  3.5314393043518066 23.4841556549072266
  8.3693914413452148  5.8078985214233398 23.4835796356201172
  5.6375494003295898  1.1366178989410400 23.4841880798339844
  0.9707083106040955  8.2020339965820312 23.4837226867675781
  8.3708772659301758  3.5335218906402588 25.0868377685546875
  0.9728165268898010  1.1383954286575317 25.0872287750244141
  5.6420311927795410  8.2045068740844727 25.0867195129394531
  3.6989705562591553  5.8074188232421875 25.0840950012207031
  6.2045040130615234  5.6394486427307129 25.4805240631103516
  1.5333039760589600  3.6980981826782227 25.4805850982666016
  3.1364810466766357  8.3717250823974609 25.4808635711669922
  7.8073520660400391  0.9675948619842529 25.4841976165771484
  3.5307881832122803  1.5316200256347656 25.6497364044189453
  1.1385414600372314  6.2033100128173828 25.6494140625000000
  8.2003288269042969  7.8082046508789062 25.6509380340576172
  5.8069219589233398  3.1380932331085205 25.6521835327148438
  3.5301582813262939  6.2019400596618652 27.5867881774902344
  8.2002429962158203  3.1395359039306641 27.5899658203125000
  1.1410288810729980  1.5290815830230713 27.5932483673095703
  5.8140549659729004  7.8099961280822754 27.5911388397216797
  1.5327923297882080  8.3741798400878906 27.7569713592529297
  6.2047514915466309  0.9696524143218994 27.7565460205078125
  7.8041629791259766  5.6424894332885742 27.7597541809082031
  3.1333279609680176  3.6958215236663818 27.7589168548583984
  5.6410717964172363  3.5308120250701904 28.1505699157714844
  8.3675870895385742  8.2031450271606445 28.1506347656250000
  3.6968955993652344  1.1394647359848022 28.1501388549804688
  0.9666020870208740  5.8062691688537598 28.1511631011962891
  8.3855934143066406  1.1486891508102417 29.7468204498291016
  3.7173027992248535  8.1913700103759766 29.7474803924560547
  5.6285786628723145  5.8234996795654297 29.7459735870361328
  0.9586803913116455  3.5185387134552002 29.7472076416015625
  3.1437287330627441  5.6303906440734863 30.1619052886962891
  1.5248122215270996  0.9654815793037415 30.1553535461425781
  6.1966238021850586  8.3743066787719727 30.1571769714355469
  7.8151383399963379  3.7071094512939453 30.1577396392822266
  3.5061712265014648  3.1531136035919189 30.3492679595947266
  5.8315620422363281  1.5149750709533691 30.3505229949951172
  1.1553834676742554  7.8258309364318848 30.3533973693847656
  8.1813383102416992  6.1877841949462891 30.3500366210937500
  1.1532024145126343  3.1528098583221436 32.2244834899902344
  8.1875209808349609  1.5178052186965942 32.2250366210937500
  3.5172336101531982  7.8221650123596191 32.2248191833496094
  5.8226466178894043  6.1881222724914551 32.2244606018066406
  1.5036796331405640  5.6412749290466309 32.3637008666992188
  3.1661152839660645  0.9705030322074890 32.3631744384765625
  7.8369135856628418  8.3689374923706055 32.3631782531738281
  6.1734814643859863  3.6993532180786133 32.3627624511718750
