Cu O 
 1.0000000000000000
     9.3401937484741211    0.0000000000000000    0.0000000000000000
     0.0000000000000000    9.3401937484741211    0.0000000000000000
     0.0000000000000000    0.0000000000000000   46.7009696960449219
 Cu  O  
  56  88
Cartesian
  0.0002059512771666  2.3348541259765625 17.0217742919921875
  4.6703133583068848  7.0052223205566406 17.0219802856445312
  6.7488451004028320  4.4525804519653320 17.3617095947265625
  2.5916006565093994  0.2176872342824936 17.3618030548095703
  2.0781242847442627  4.8875517845153809 17.3608074188232422
  7.2621097564697266  9.1224422454833984 17.3611602783203125
  4.6701192855834961  2.3352119922637939 17.6133975982666016
  0.0001415973383700  7.0049901008605957 17.6130332946777344
  2.3361930847167969  2.3259091377258301 19.5960884094238281
  4.2753410339355469  4.6669669151306152 19.6055507659912109
  0.3949230313301086  9.3366918563842773 19.6052970886230469
  8.9453449249267578  4.6735119819641113 19.6054191589355469
  2.3334684371948242  6.9956240653991699 19.5965099334716797
  7.0042171478271484  2.3440024852752686 19.5960235595703125
  5.0648374557495117  0.0030894558876753 19.6055030822753906
  7.0069408416748047  7.0148777961730957 19.5964279174804688
  4.6705169677734375  7.0051603317260742 21.6093597412109375
  0.0000686504281475  2.3350512981414795 21.6092128753662109
  7.0239148139953613  0.3002245724201202 21.9484844207763672
  2.3167831897735596  4.3697991371154785 21.9482059478759766
  2.3530037403106689  9.0399656295776367 21.9487628936767578
  6.9867973327636719  4.9698843955993652 21.9485588073730469
 -0.0000675296032568  7.0049529075622559 22.2692165374755859
  4.6701645851135254  2.3348066806793213 22.2693748474121094
  4.3747181892395020  9.3398704528808594 24.2849445343017578
  7.0050482749938965  2.3347625732421875 24.2849674224853516
  2.3352181911468506  7.0048947334289551 24.2846660614013672
  0.2954618930816650  4.6701536178588867 24.2844638824462891
  2.3348627090454102  2.3348469734191895 24.2847385406494141
  7.0047020912170410  7.0059037208557129 24.2843666076660156
  9.0447740554809570  0.0002658219309524 24.2845458984375000
  4.9659967422485352  4.6701469421386719 24.2847843170166016
 -0.0003822941507678  2.3354520797729492 26.2997531890869141
  4.6699266433715820  7.0050716400146484 26.3000717163085938
  6.9856109619140625  4.3701639175415039 26.6205863952636719
  2.3539140224456787  0.3002462387084961 26.6211509704589844
  2.3158884048461914  4.9702105522155762 26.6205520629882812
  7.0246701240539551  9.0402822494506836 26.6210231781005859
  4.6700925827026367  2.3349728584289551 26.9594688415527344
  9.3399314880371094  7.0052442550659180 26.9594688415527344
  2.3331353664398193  2.3445084095001221 28.9725112915039062
  4.2753248214721680  4.6731996536254883 28.9632816314697266
  0.3945249319076538  0.0036755532491952 28.9633407592773438
  8.9454975128173828  4.6669278144836426 28.9634437561035156
  2.3366925716400146  7.0141978263854980 28.9727268218994141
  7.0065870285034180  2.3258063793182373 28.9726657867431641
  5.0647096633911133  9.3365411758422852 28.9628582000732422
  7.0030970573425293  6.9957461357116699 28.9728317260742188
  4.6700696945190430  7.0058240890502930 30.9558048248291016
  0.0000106478210000  2.3344144821166992 30.9557895660400391
  7.2620625495910645  0.2173248380422592 31.2073211669921875
  2.0779933929443359  4.4528779983520508 31.2070312500000000
  2.5917150974273682  9.1229467391967773 31.2070960998535156
  6.7484579086303711  4.8874063491821289 31.2067947387695312
  0.0001305759069510  7.0053830146789551 31.5450019836425781
  4.6701712608337402  2.3349761962890625 31.5446453094482422
  5.7196869850158691  5.6560912132263184 16.4822807312011719
  1.0494278669357300  3.6838648319244385 16.4817390441894531
  3.6203570365905762  8.3542881011962891 16.4824504852294922
  8.2909708023071289  0.9855257272720337 16.4818134307861328
  3.6836209297180176  1.3668800592422485 16.3854465484619141
  0.9854787588119507  6.0369286537170410 16.3840141296386719
  8.3549175262451172  7.9731841087341309 16.3839893341064453
  5.6566848754882812  3.3032743930816650 16.3852615356445312
  3.3499443531036377  6.1013040542602539 18.0964317321777344
  8.0210762023925781  3.2396850585937500 18.0973854064941406
  1.3182046413421631  1.4300143718719482 18.0988960266113281
  5.9897060394287109  7.9090108871459961 18.0975341796875000
  1.6159130334854126  8.3532962799072266 18.4105834960937500
  6.2868070602416992  0.9855433702468872 18.4108543395996094
  7.7242121696472168  5.6571774482727051 18.4103946685791016
  3.0529265403747559  3.6841349601745605 18.4107532501220703
  5.5239853858947754  3.4563310146331787 18.9164600372314453
  8.4860353469848633  8.1271820068359375 18.9155750274658203
  3.8160173892974854  1.2135102748870850 18.9163684844970703
  0.8541439175605774  5.8834643363952637 18.9156990051269531
  3.7547969818115234  8.1714420318603516 20.3518867492675781
  5.5848112106323242  5.8407349586486816 20.3504848480224609
  0.9144371151924133  3.5006372928619385 20.3508243560791016
  8.4255542755126953  1.1680423021316528 20.3519382476806641
  3.0962321758270264  5.6552629470825195 20.7872486114501953
  1.5742666721343994  0.9851994514465332 20.7869834899902344
  6.2443432807922363  8.3552370071411133 20.7875633239746094
  7.7663311958312988  3.6848013401031494 20.7872467041015625
  5.8478794097900391  1.5170527696609497 21.0037803649902344
  3.4921979904174805  3.1524720191955566 21.0038261413574219
  1.1748590469360352  7.8250203132629395 21.0027179718017578
  8.1639575958251953  6.1860589981079102 21.0030708312988281
  1.1239207983016968  3.1428966522216797 22.8978900909423828
  8.2161445617675781  1.5273153781890869 22.8988895416259766
  3.5468318462371826  7.8135519027709961 22.8991279602050781
  5.7934937477111816  6.1964960098266602 22.8984546661376953
  1.5061913728713989  5.6473436355590820 23.0790348052978516
  3.1631712913513184  0.9764347076416016 23.0805740356445312
  7.8343801498413086  8.3633565902709961 23.0790996551513672
  6.1771688461303711  3.6932671070098877 23.0810832977294922
  3.6851291656494141  3.5298790931701660 23.4926567077636719
  8.3553819656372070  5.8120508193969727 23.4932460784912109
  5.6557741165161133  1.1393289566040039 23.4922542572021484
  0.9856392145156860  8.1995716094970703 23.4925727844238281
  8.3542728424072266  3.5298566818237305 25.0768413543701172
  0.9859677553176880  1.1389163732528687 25.0781421661376953
  5.6560478210449219  8.2012681961059570 25.0781459808349609
  3.6842651367187500  5.8099441528320312 25.0771007537841797
  6.1754159927368164  5.6480503082275391 25.4900913238525391
  1.5053216218948364  3.6920902729034424 25.4903945922851562
  3.1642329692840576  8.3622045516967773 25.4899845123291016
  7.8346109390258789  0.9780952334403992 25.4899120330810547
  3.5473728179931641  1.5262047052383423 25.6699066162109375
  1.1251018047332764  6.1979451179504395 25.6711368560791016
  8.2162332534790039  7.8136620521545410 25.6702976226806641
  5.7943024635314941  3.1427438259124756 25.6704826354980469
  3.4949483871459961  6.1852016448974609 27.5663452148437500
  8.1650867462158203  3.1551742553710938 27.5663528442382812
  1.1757073402404785  1.5163000822067261 27.5666179656982422
  5.8472013473510742  7.8234324455261230 27.5664615631103516
  1.5738753080368042  8.3552684783935547 27.7824954986572266
  6.2434992790222168  0.9850161075592041 27.7815666198730469
  7.7653546333312988  5.6549410820007324 27.7830333709716797
  3.0956478118896484  3.6850740909576416 27.7828044891357422
  5.5855016708374023  3.5016486644744873 28.2160606384277344
  8.4244022369384766  8.1718168258666992 28.2169647216796875
  3.7540285587310791  1.1682940721511841 28.2164688110351562
  0.9153670072555542  5.8381996154785156 28.2161979675292969
  8.4856700897216797  1.2133463621139526 29.6543083190917969
  3.8158569335937500  8.1267251968383789 29.6540851593017578
  5.5245752334594727  5.8836021423339844 29.6543159484863281
  0.8547019362449646  3.4567167758941650 29.6544685363769531
  3.0549376010894775  5.6574387550354004 30.1598377227783203
  1.6150647401809692  0.9880829453468323 30.1593284606933594
  6.2852931022644043  8.3525838851928711 30.1591415405273438
  7.7253360748291016  3.6825058460235596 30.1601123809814453
  3.3517901897430420  3.2396223545074463 30.4688014984130859
  5.9887576103210449  1.4299941062927246 30.4704761505126953
  1.3184589147567749  7.9104394912719727 30.4699745178222656
  8.0216989517211914  6.1006569862365723 30.4687881469726562
  0.9857844114303589  3.3047358989715576 32.1844787597656250
  8.3538303375244141  1.3652740716934204 32.1847457885742188
  3.6836464405059814  7.9750981330871582 32.1843109130859375
  5.6557970046997070  6.0352287292480469 32.1844291687011719
  1.0486114025115967  5.6548361778259277 32.0847511291503906
  3.6219170093536377  0.9855211377143860 32.0854492187500000
  8.2921133041381836  8.3554439544677734 32.0852699279785156
  5.7182464599609375  3.6853184700012207 32.0850028991699219
