Mn O 
 1.0000000000000000
     9.6192922592163086    0.0000000000000000    0.0000000000000000
     0.0000000000000000    9.6219177246093750    0.0000000000000000
     0.0000000000000000    0.0000000000000000   47.9949150085449219
 Mn  O  
  56  88
Cartesian
  7.1549115180969238  6.9013924598693848 17.6765327453613281
  7.2718968391418457  2.0894525051116943 17.6803836822509766
  0.0267669297754765  4.7061004638671875 17.7071304321289062
  0.0104506872594357  0.1095729619264603 17.7147293090820312
  4.7814822196960449 -0.1124131530523300 17.6994342803955078
  4.7989234924316406  4.9213142395019531 17.7133426666259766
  2.2363607883453369  2.7313277721405029 17.7560138702392578
  2.5794217586517334  7.5413670539855957 17.7507019042968750
  4.7544727325439453  2.4267077445983887 19.8295307159423828
  0.0553018860518932  7.2373089790344238 19.8297309875488281
  7.5648560523986816  0.0274330507963896 20.1141014099121094
  6.8640050888061523  4.8390169143676758 20.1137771606445312
  2.7586736679077148  0.0035415394231677 20.1771316528320312
  2.0517261028289795  4.8156847953796387 20.1775436401367188
  9.5517463684082031  2.4238600730895996 20.4698925018310547
  4.8767962455749512  7.2347078323364258 20.4685859680175781
  7.1699986457824707  2.7442104816436768 22.4966220855712891
  7.2589678764343262  7.5550794601440430 22.4966983795166016
  4.8100090026855469  0.0000973738133325 22.5516471862792969
 -0.0020664162002504  0.0000933326082304 22.5502490997314453
  4.8118128776550293  4.8112821578979492 22.5500907897949219
 -0.0004699986020569  4.8112277984619141 22.5519351959228516
  2.4545056819915771  6.8787755966186523 22.6023693084716797
  2.3553607463836670  2.0677995681762695 22.6022491455078125
  4.7452154159545898  2.3842315673828125 24.6251621246337891
  0.0644963905215263  7.1951642036437988 24.6250572204589844
  7.5576968193054199  4.7998476028442383 24.9287261962890625
  6.8711805343627930  9.6106786727905273 24.9286918640136719
  2.7486913204193115  4.7993407249450684 24.9846820831298828
  2.0610613822937012  9.6103010177612305 24.9847145080566406
  4.8754696846008301  7.1953792572021484 25.2873363494873047
  9.5534200668334961  2.3844413757324219 25.2874126434326172
  7.2623624801635742  6.8787140846252441 27.3063621520996094
  7.1664700508117676  2.0678043365478516 27.3063373565673828
  0.0025396854616702  4.8116421699523926 27.3622055053710938
  0.0006733504123986 -0.0006776716909371 27.3600502014160156
  4.8069586753845215  0.0007244342123158 27.3625011444091797
  4.8090701103210449  4.8103175163269043 27.3601055145263672
  2.3625457286834717  2.7428579330444336 27.4179439544677734
  2.4472961425781250  7.5540051460266113 27.4181041717529297
  4.7402977943420410  2.4198367595672607 29.4533042907714844
  0.0691680014133453  7.2314829826354980 29.4527091979980469
  7.5660734176635742  0.0036384321283549 29.7366714477539062
  6.8623089790344238  4.8146009445190430 29.7363967895507812
  2.7601075172424316  0.0319261029362679 29.8015995025634766
  2.0503304004669189  4.8421092033386230 29.8011779785156250
  9.5638303756713867  2.4296979904174805 30.0833683013916016
  4.8646488189697266  7.2411160469055176 30.0835647583007812
  7.0606803894042969  2.7462098598480225 32.1632308959960938
  7.3688187599182129  7.5568799972534180 32.1639060974121094
  4.8175821304321289  0.1044815182685852 32.2107200622558594
 -0.0176766030490398 -0.1045483946800232 32.2057342529296875
  4.8268666267395020  4.7060794830322266 32.2054443359375000
 -0.0072668939828873  4.9169330596923828 32.2100753784179688
  2.3493044376373291  6.9073424339294434 32.2315368652343750
  2.4620711803436279  2.0974354743957520 32.2317466735839844
  6.2531557083129883  5.6518654823303223 16.5269489288330078
  8.1765327453613281  0.8404744267463684 16.5301380157470703
  3.4452400207519531  8.8275899887084961 16.6646404266357422
  1.3630180358886719  4.0127086639404297 16.6496810913085938
  8.2964048385620117  3.4099023342132568 16.9107627868652344
  6.1386637687683105  8.2241115570068359 16.9254016876220703
  1.2046921253204346  1.3554409742355347 17.0109996795654297
  3.5991623401641846  6.1611280441284180 17.0170021057128906
  5.9777154922485352  3.4134504795074463 18.5282936096191406
  8.4516439437866211  8.2251634597778320 18.5282554626464844
  3.5368041992187500  1.4006227254867554 18.6117610931396484
  1.2739239931106567  6.2127490043640137 18.6118946075439453
  8.2713880538940430  5.6400909423828125 18.9302845001220703
  6.1559171676635742  0.8282476067543030 18.9296531677246094
  3.4028210639953613  3.9656713008880615 19.0141582489013672
  1.4047845602035522  8.7779970169067383 19.0130558013916016
  8.7625665664672852  1.2649369239807129 19.1577033996582031
  5.6655387878417969  6.0754151344299316 19.1601257324218750
  4.0042719841003418  8.3757619857788086 19.2126235961914062
  0.8057528734207153  3.5648705959320068 19.2091922760009766
  5.5919628143310547  3.5787596702575684 21.1565399169921875
  8.8369369506835938  8.3899841308593750 21.1567096710205078
  0.8447291851043701  6.0555195808410645 21.2103099822998047
  3.9650633335113525  1.2445313930511475 21.2104530334472656
  8.1786031723022461  3.9657752513885498 21.2626209259033203
  6.2504153251647949  8.7769145965576172 21.2628822326660156
  3.4518485069274902  5.6265306472778320 21.3640594482421875
  1.3578193187713623  0.8157331943511963 21.3636550903320312
  6.1272053718566895  6.2225065231323242 21.6937370300292969
  8.3016910552978516  1.4114085435867310 21.6932239532470703
  1.1948721408843994  3.4301660060882568 21.7760143280029297
  3.6145396232604980  8.2410936355590820 21.7763824462890625
  5.9985365867614746  1.3827073574066162 23.3477077484130859
  8.4306249618530273  6.1935930252075195 23.3477077484130859
  1.3125137090682983  8.2081012725830078 23.4351882934570312
  3.4970629215240479  3.3971583843231201 23.4351043701171875
  6.1673932075500488  3.9978780746459961 23.7586898803710938
  8.2614459991455078  8.8088502883911133 23.7586956024169922
  3.3657181262969971  0.8399049043655396 23.8637409210205078
  1.4440884590148926  5.6509132385253906 23.8636913299560547
  5.6533107757568359  8.3744535446166992 23.9133090972900391
  8.7756919860839844  3.5632903575897217 23.9134178161621094
  0.7858617305755615  1.2315123081207275 23.9691085815429688
  4.0236501693725586  6.0425615310668945 23.9691028594970703
  8.8346595764160156  6.0431656837463379 25.9461307525634766
  5.5942420959472656  1.2320494651794434 25.9462280273437500
  3.9650664329528809  3.5629281997680664 26.0006866455078125
  0.8445381522178650  8.3737964630126953 26.0005950927734375
  6.2558832168579102  5.6523895263671875 26.0520591735839844
  8.1731071472167969  0.8414379954338074 26.0521049499511719
  3.4522943496704102  8.8098621368408203 26.1578083038330078
  1.3573116064071655  3.9988014698028564 26.1578998565673828
  8.3039703369140625  3.3944597244262695 26.4811515808105469
  6.1250271797180176  8.2056159973144531 26.4811382293701172
  1.1885951757431030  1.3813663721084595 26.5688400268554688
  3.6209206581115723  6.1923642158508301 26.5688762664794922
  6.0017333030700684  3.4315690994262695 28.1384029388427734
  8.4272365570068359  8.2425289154052734 28.1385116577148438
  3.4925706386566162  1.4163745641708374 28.2192173004150391
  1.3169513940811157  6.2274932861328125 28.2198066711425781
  8.2586469650268555  5.6246995925903320 28.5521011352539062
  6.1702990531921387  0.8136147856712341 28.5518474578857422
  3.3628506660461426  3.9682946205139160 28.6559505462646484
  1.4463440179824829  8.7787141799926758 28.6557216644287109
  8.7746629714965820  1.2479318380355835 28.7111625671386719
  5.6543674468994141  6.0586552619934082 28.7109985351562500
  4.0291051864624023  8.3867444992065430 28.7608585357666016
  0.7808327674865723  3.5758984088897705 28.7613830566406250
  5.6138939857482910  3.5631127357482910 30.6935462951660156
  8.8154811859130859  8.3735256195068359 30.6933689117431641
  0.8661091327667236  6.0824089050292969 30.7466354370117188
  3.9421803951263428  1.2730040550231934 30.7451992034912109
  8.2106103897094727  3.9680359363555908 30.9021930694580078
  6.2194581031799316  8.7783031463623047 30.9014911651611328
  3.4615695476531982  5.6399755477905273 30.9889144897460938
  1.3476436138153076  0.8294790983200073 30.9894180297851562
  6.0817241668701172  6.2108936309814453 31.3032569885253906
  8.3474178314208984  1.4000494480133057 31.3031253814697266
  1.1725840568542480  3.4032738208770752 31.3906764984130859
  3.6353464126586914  8.2122650146484375 31.3897418975830078
  6.0199522972106934  1.3533810377120972 32.9068336486816406
  8.4101381301879883  6.1629624366760254 32.9032936096191406
  1.3321357965469360  8.2237443923950195 32.9884757995605469
  3.4768002033233643  3.4120123386383057 32.9868202209472656
  6.1781282424926758  3.9970152378082275 33.2702140808105469
  8.2509346008300781  8.8083267211914062 33.2702827453613281
  3.3747236728668213  0.8324226140975952 33.3785362243652344
  1.4340190887451172  5.6433587074279785 33.3761100769042969
