Mn O 
 1.0000000000000000
     9.6192922592163086    0.0000000000000000    0.0000000000000000
     0.0000000000000000    9.6219177246093750    0.0000000000000000
     0.0000000000000000    0.0000000000000000   47.9949150085449219
 Mn  O  
  56  88
Cartesian
  7.1028161048889160  6.9766283035278320 17.7635154724121094
  7.3259162902832031  2.1656670570373535 17.7635936737060547
 -0.0012063554022461  4.6798148155212402 17.7910213470458984
  9.6108531951904297  0.1301700174808502 17.7637634277343750
  4.8109698295593262  9.4907608032226562 17.7909832000732422
  4.8181619644165039  4.9411554336547852 17.7638378143310547
  2.2676446437835693  2.6488149166107178 17.7794532775878906
  2.5418820381164551  7.4594941139221191 17.7792301177978516
  4.7790412902832031  2.4168167114257812 19.7451839447021484
  0.0301983244717121  7.2277488708496094 19.7450485229492188
  7.5462522506713867  0.0680704489350319 20.1322174072265625
  6.8826866149902344  4.8786678314208984 20.1320095062255859
  2.7015173435211182  9.6102952957153320 20.1291809082031250
  2.1079905033111572  4.7997107505798340 20.1291904449462891
  9.5749044418334961  2.4264008998870850 20.6158714294433594
  4.8539271354675293  7.2372303009033203 20.6158065795898438
  7.1473774909973145  2.7628805637359619 22.5112781524658203
  7.2816557884216309  7.5737094879150391 22.5111198425292969
  4.7972087860107422  0.0187422446906567 22.5513992309570312
  9.6187810897827148  9.6031904220581055 22.5532608032226562
  4.8102073669433594  4.7922630310058594 22.5533027648925781
  0.0123494397848845  4.8296504020690918 22.5514049530029297
  2.4408996105194092  6.8613767623901367 22.6111164093017578
  2.3687264919281006  2.0503883361816406 22.6110630035400391
  4.7374072074890137  2.3764195442199707 24.6386356353759766
  0.0721811503171921  7.1875104904174805 24.6385326385498047
  7.5620903968811035  4.7858099937438965 24.9313755035400391
  6.8668961524963379  9.5967426300048828 24.9314002990722656
  2.7519993782043457  4.7873659133911133 24.9844207763671875
  2.0577032566070557  9.5983772277832031 24.9845142364501953
  4.8804745674133301  7.1870203018188477 25.2792625427246094
  9.5485410690307617  2.3761506080627441 25.2793121337890625
  7.2505688667297363  6.8619227409362793 27.3031806945800781
  7.1784100532531738  2.0509936809539795 27.3032627105712891
  0.0013766168849543  4.7918758392333984 27.3621654510498047
  9.6074819564819336  0.0177286732941866 27.3644409179687500
  4.8083777427673340  9.6028079986572266 27.3622093200683594
  4.8215451240539551  4.8287091255187988 27.3643226623535156
  2.3385155200958252  2.7611708641052246 27.4055728912353516
  2.4711661338806152  7.5721139907836914 27.4056320190429688
  4.7676024436950684  2.4257478713989258 29.2983455657958984
  0.0421525053679943  7.2365183830261230 29.2983455657958984
  7.5125393867492676  9.6058626174926758 29.7819519042968750
  6.9165139198303223  4.7949671745300293 29.7819995880126953
  2.7367615699768066  0.0645844340324402 29.7847843170166016
  2.0730011463165283  4.8754820823669434 29.7848529815673828
  9.5907840728759766  2.4154667854309082 30.1670360565185547
  4.8380484580993652  7.2263636589050293 30.1669330596923828
  7.0785102844238281  2.6494717597961426 32.1300468444824219
  7.3502697944641113  7.4603700637817383 32.1301307678222656
  4.8016185760498047  0.1358493566513062 32.1471328735351562
  0.0008096558158286  9.4903821945190430 32.1240119934082031
  4.8086509704589844  4.6796712875366211 32.1238555908203125
  0.0078671379014850  4.9466657638549805 32.1472282409667969
  2.2908072471618652  6.9827017784118652 32.1474952697753906
  2.5185980796813965  2.1718058586120605 32.1474113464355469
  6.2625408172607422  5.6208605766296387 16.7633228302001953
  8.1662940979003906  0.8099486231803894 16.7637538909912109
  3.3912746906280518  8.8008575439453125 16.7768421173095703
  1.4193133115768433  3.9904568195343018 16.7766265869140625
  8.2952318191528320  3.5884842872619629 17.0246086120605469
  6.1341609954833984  8.3995895385742188 17.0246467590332031
  1.2986123561859131  1.2393203973770142 17.0135707855224609
  3.5103523731231689  6.0495262145996094 17.0130653381347656
  5.9437570571899414  3.4270882606506348 18.4636573791503906
  8.4854307174682617  8.2381963729858398 18.4637279510498047
  3.6316304206848145  1.3704522848129272 18.4951229095458984
  1.1778706312179565  6.1813621520996094 18.4949150085449219
  8.2266168594360352  5.6777052879333496 18.8763027191162109
  6.2020602226257324  0.8667696118354797 18.8765277862548828
  3.4066796302795410  3.9607193470001221 18.8814182281494141
  1.4027507305145264  8.7717638015747070 18.8811454772949219
  8.7650508880615234  1.3388392925262451 19.2689647674560547
  5.6639237403869629  6.1495952606201172 19.2688312530517578
  3.9359273910522461  8.2952871322631836 19.3111419677734375
  0.8735490441322327  3.4845595359802246 19.3111743927001953
  5.5846791267395020  3.5992727279663086 21.1209754943847656
  8.8440876007080078  8.4100694656372070 21.1209449768066406
  0.8735252022743225  6.0543985366821289 21.1313762664794922
  3.9360811710357666  1.2434240579605103 21.1315002441406250
  8.1853914260864258  3.9863238334655762 21.2608222961425781
  6.2432732582092285  8.7972822189331055 21.2608928680419922
  3.4612054824829102  5.6250514984130859 21.3506717681884766
  1.3484387397766113  0.8139511346817017 21.3506698608398438
  6.1298875808715820  6.2307696342468262 21.7866935729980469
  8.2993545532226562  1.4199286699295044 21.7871093750000000
  1.1930764913558960  3.4313826560974121 21.8580112457275391
  3.6166043281555176  8.2420997619628906 21.8580017089843750
  5.9625458717346191  1.3965989351272583 23.3336849212646484
  8.4663934707641602  6.2073850631713867 23.3335418701171875
  1.3089112043380737  8.1860923767089844 23.4387283325195312
  3.5006539821624756  3.3749866485595703 23.4387874603271484
  6.1627750396728516  3.9933364391326904 23.7655849456787109
  8.2662019729614258  8.8043165206909180 23.7653942108154297
  3.3653042316436768  0.8238866329193115 23.8527755737304688
  1.4444475173950195  5.6349549293518066 23.8526878356933594
  5.6622629165649414  8.3759479522705078 23.9253730773925781
  8.7668380737304688  3.5651741027832031 23.9253158569335938
  0.7842208743095398  1.2054212093353271 23.9705581665039062
  4.0256457328796387  6.0162677764892578 23.9704456329345703
  8.8371658325195312  6.0173740386962891 25.9463653564453125
  5.5917234420776367  1.2062265872955322 25.9465675354003906
  3.9608452320098877  3.5707221031188965 25.9963436126708984
  0.8486595153808594  8.3819036483764648 25.9964199066162109
  6.2562084197998047  5.6387891769409180 26.0597133636474609
  8.1726999282836914  0.8280363082885742 26.0596656799316406
  3.4552187919616699  8.8053045272827148 26.1510066986083984
  1.3544552326202393  3.9945201873779297 26.1510391235351562
  8.3157186508178711  3.3773591518402100 26.4847965240478516
  6.1134028434753418  8.1881885528564453 26.4845485687255859
  1.1547780036926270  1.3969018459320068 26.5823745727539062
  3.6548912525177002  6.2077817916870117 26.5822448730468750
  6.0059537887573242  3.4310812950134277 28.0606555938720703
  8.4228477478027344  8.2420835494995117 28.0607242584228516
  3.4929311275482178  1.4168267250061035 28.1269321441650391
  1.3164286613464355  6.2278065681457520 28.1267471313476562
  8.2691907882690430  5.6225686073303223 28.5654468536376953
  6.1599006652832031  0.8116437792778015 28.5656776428222656
  3.3757894039154053  3.9812693595886230 28.6605987548828125
  1.4340988397598267  8.7920856475830078 28.6608791351318359
  8.7525005340576172  1.2362519502639771 28.7794494628906250
  5.6768574714660645  6.0474157333374023 28.7794666290283203
  4.0334634780883789  8.4063701629638672 28.7925701141357422
  0.7765929698944092  3.5953044891357422 28.7926845550537109
  5.6813735961914062  3.4846911430358887 30.6045913696289062
  8.7474946975708008  8.2955198287963867 30.6045989990234375
  0.8510197401046753  6.1480760574340820 30.6432113647460938
  3.9586751461029053  1.3372480869293213 30.6431579589843750
  8.2171630859375000  3.9586722850799561 31.0284481048583984
  6.2118954658508301  8.7697229385375977 31.0283699035644531
  3.4144299030303955  5.6793255805969238 31.0400733947753906
  1.3951305150985718  0.8683400154113770 31.0402584075927734
  5.9830107688903809  6.1816477775573730 31.4157085418701172
  8.4456539154052734  1.3708000183105469 31.4156875610351562
  1.1367080211639404  3.4317655563354492 31.4470996856689453
  3.6726870536804199  8.2425289154052734 31.4466648101806641
  6.1162209510803223  1.2376214265823364 32.8958549499511719
  8.3127813339233398  6.0484776496887207 32.8960647583007812
  1.3190087080001831  8.3981313705444336 32.8955268859863281
  3.4907927513122559  3.5872268676757812 32.8956756591796875
  6.2330322265625000  3.9909994602203369 33.1358909606933594
  8.1960277557373047  8.8021125793457031 33.1360397338867188
  3.3631088733673096  0.8153101205825806 33.1499748229980469
  1.4463328123092651  5.6267843246459961 33.1498527526855469
