Mn O 
 1.0000000000000000
     9.6192922592163086    0.0000000000000000    0.0000000000000000
     0.0000000000000000    9.6219177246093750    0.0000000000000000
     0.0000000000000000    0.0000000000000000   47.9949150085449219
 Mn  O  
  56  85
Cartesian
  7.2792291641235352  2.6386938095092773 18.2999038696289062
  7.1498126983642578  7.4496965408325195 18.3002109527587891
  4.7218356132507324  9.5395231246948242 18.3029918670654297
  9.5388994216918945  0.0996656566858292 18.2687320709228516
  4.8900251388549805  4.9103565216064453 18.2688503265380859
  0.0877618044614792  4.7286167144775391 18.3028068542480469
  2.5609695911407471  6.9736280441284180 18.3815879821777344
  2.2484815120697021  2.1629242897033691 18.3817787170410156
  4.7579379081726074  2.3932628631591797 20.3008041381835938
  0.0517342835664749  7.2042851448059082 20.3007926940917969
  7.5544319152832031  4.7946915626525879 20.6093692779541016
  6.8744010925292969  9.6056699752807617 20.6091270446777344
  2.7431933879852295  4.8006601333618164 20.6675128936767578
  2.0665898323059082  9.6116132736206055 20.6676902770996094
  4.8753619194030762  7.1946268081665039 20.9765300750732422
  9.5535907745361328  2.3836870193481445 20.9766578674316406
  7.2539653778076172  6.8777012825012207 22.9835910797119141
  7.1750640869140625  2.0668389797210693 22.9837913513183594
  9.6178865432739258  4.8079380989074707 23.0377483367919922
  0.0008234113920480  0.0026651751250029 23.0376453399658203
  4.8111305236816406 -0.0030997970607132 23.0376911163330078
  4.8087415695190430  4.8136773109436035 23.0376510620117188
  2.3546926975250244  2.7446393966674805 23.0930614471435547
  2.4549777507781982  7.5555887222290039 23.0931510925292969
  4.7412781715393066  2.4272141456604004 25.1046886444091797
  0.0684346258640289  7.2377038002014160 25.1046028137207031
  7.5601377487182617  0.0115213803946972 25.4112453460693359
  6.8689012527465820  4.8230495452880859 25.4115676879882812
  2.7487928867340088  0.0087132239714265 25.4650821685791016
  2.0605862140655518  4.8202238082885742 25.4647369384765625
  9.5545740127563477  2.4251863956451416 25.7649822235107422
  4.8744735717773438  7.2364850044250488 25.7649555206298828
  7.1727981567382812  2.7397308349609375 27.7803192138671875
  7.2559800148010254  7.5506019592285156 27.7792758941650391
  4.8089170455932617  0.0007069223211147 27.8332538604736328
  0.0037149705458432 -0.0005217966390774 27.8301830291748047
  4.8054413795471191  4.8105688095092773 27.8314151763916016
  0.0013543000677601  4.8117785453796387 27.8340396881103516
  2.4526226520538330  6.8786611557006836 27.8932704925537109
  2.3573408126831055  2.0682146549224854 27.8917198181152344
  4.7398500442504883  2.3805758953094482 29.9164123535156250
  0.0705794394016266  7.1934108734130859 29.9097366333007812
  7.5578413009643555  4.7972860336303711 30.2037792205810547
  6.8696618080139160  9.6102132797241211 30.2094192504882812
  2.7269406318664551  4.8021712303161621 30.2569808959960938
  2.0723860263824463  9.6209411621093750 30.2455883026123047
  4.8690223693847656  7.2002472877502441 30.5492362976074219
  9.5709295272827148  2.3962855339050293 30.5553855895996094
  7.2103238105773926  6.8487591743469238 32.4754447937011719
  7.1746511459350586  2.0576419830322266 32.4740371704101562
  0.0249745678156614  4.7185230255126953 32.6710624694824219
 -0.0426692552864552  9.5368175506591797 32.6394348144531250
  4.6927375793457031  0.0370229259133339 32.7346916198730469
  4.9020762443542480  4.7286796569824219 32.6433639526367188
  2.3646819591522217  2.6811914443969727 32.7075004577636719
  2.5063073635101318  7.6001086235046387 32.7974548339843750
  6.0984654426574707  6.1992573738098145 17.4183235168457031
  8.3306894302368164  1.3886417150497437 17.4174957275390625
  1.2000821828842163  3.4334771633148193 17.4765663146972656
  3.6096301078796387  8.2446842193603516 17.4769439697265625
  5.9622416496276855  1.3709098100662231 18.9786243438720703
  8.4664707183837891  6.1817770004272461 18.9789695739746094
  1.2467767000198364  8.2607660293579102 19.0545196533203125
  3.5626945495605469  3.4498510360717773 19.0545864105224609
  6.2190537452697754  3.9547398090362549 19.4277229309082031
  8.2099151611328125  8.7655906677246094 19.4277191162109375
  3.3655216693878174  0.8528201580047607 19.4929084777832031
  1.4441971778869629  5.6635794639587402 19.4928302764892578
  5.6908044815063477  8.3381738662719727 19.5733890533447266
  8.7383556365966797  3.5271575450897217 19.5735816955566406
  0.8381460309028625  1.2790240049362183 19.6403484344482422
  3.9718382358551025  6.0898728370666504 19.6402835845947266
  8.8381156921386719  6.0320072174072266 21.6291999816894531
  5.5909872055053711  1.2211294174194336 21.6290378570556641
  3.9699072837829590  3.5654263496398926 21.6817913055419922
  0.8399460911750793  8.3763132095336914 21.6816596984863281
  6.2514882087707520  5.6524052619934082 21.7318954467773438
  8.1776695251464844  0.8414766788482666 21.7319831848144531
  3.4519281387329102  8.8086252212524414 21.8378143310546875
  1.3577553033828735  3.9974904060363770 21.8375606536865234
  8.3014974594116211  3.3933281898498535 22.1682243347167969
  6.1274938583374023  8.2043180465698242 22.1682052612304688
  1.1952089071273804  1.3833485841751099 22.2475395202636719
  3.6141576766967773  6.1943078041076660 22.2474613189697266
  5.9998078346252441  3.4288663864135742 23.8235855102539062
  8.4291038513183594  8.2399272918701172 23.8231964111328125
  3.4993073940277100  1.4157917499542236 23.9075260162353516
  1.3106223344802856  6.2263765335083008 23.9073257446289062
  8.2573785781860352  5.6238341331481934 24.2372646331787109
  6.1713099479675293  0.8128880262374878 24.2370891571044922
  3.3603630065917969  3.9714841842651367 24.3390312194824219
  1.4492927789688110  8.7825117111206055 24.3388442993164062
  8.7744026184082031  1.2502759695053101 24.3913612365722656
  5.6544141769409180  6.0610246658325195 24.3911857604980469
  4.0239109992980957  8.3882207870483398 24.4484653472900391
  0.7855880260467529  3.5774731636047363 24.4481964111328125
  5.5957341194152832  3.5796928405761719 26.4251956939697266
  8.8332862854003906  8.3908824920654297 26.4250965118408203
  0.8431214094161987  6.0573287010192871 26.4799022674560547
  3.9663248062133789  1.2461115121841431 26.4809989929199219
  8.1761693954467773  3.9707143306732178 26.5310554504394531
  6.2540593147277832  8.7815475463867188 26.5307674407958984
  3.4531745910644531  5.6243662834167480 26.6366844177246094
  1.3562816381454468  0.8133687973022461 26.6366081237792969
  6.1265478134155273  6.2261557579040527 26.9601459503173828
  8.3030347824096680  1.4144114255905151 26.9605007171630859
  1.1898676156997681  3.4286205768585205 27.0491809844970703
  3.6190285682678223  8.2383928298950195 27.0489368438720703
  6.0041713714599609  1.3820830583572388 28.6263561248779297
  8.4237871170043945  6.1916317939758301 28.6265869140625000
  1.3162112236022949  8.2112350463867188 28.7037487030029297
  3.4962089061737061  3.3975038528442383 28.7050266265869141
  6.1657986640930176  3.9955003261566162 29.0355529785156250
  8.2632961273193359  8.8056697845458984 29.0364875793457031
  3.3703603744506836  0.8430532813072205 29.1385326385498047
  1.4370119571685791  5.6574611663818359 29.1316642761230469
  5.6578731536865234  8.3717603683471680 29.1897869110107422
  8.7700052261352539  3.5598993301391602 29.1912384033203125
  0.7845203876495361  1.2317682504653931 29.2439575195312500
  4.0254082679748535  6.0438461303710938 29.2424182891845703
  8.8007020950317383  6.0377206802368164 31.2913513183593750
  5.6247596740722656  1.2200726270675659 31.2738647460937500
  3.9111821651458740  3.5282132625579834 31.2973499298095703
  0.8917528390884399  8.3394250869750977 31.2916984558105469
  6.2498373985290527  5.6485309600830078 31.3319969177246094
  8.1816844940185547  0.8307642936706543 31.3330802917480469
  3.4242672920227051  8.8016290664672852 31.3261642456054688
  1.4073234796524048  3.9689209461212158 31.3713741302490234
  8.3522281646728516  3.4490683078765869 31.7913246154785156
  6.0735511779785156  8.2654438018798828 31.7971305847167969
  1.1898673772811890  1.3877916336059570 31.8376312255859375
  3.6401183605194092  6.1843247413635254 31.8269729614257812
  5.9111900329589844  3.1261482238769531 33.2612762451171875
  8.5160884857177734  8.0271558761596680 33.3221054077148438
  3.5095777511596680  1.4427601099014282 33.4270133972167969
  1.3516981601715088  6.0415205955505371 33.4119148254394531
  1.2887039184570312  7.4675035476684570 34.2512779235839844
  8.3835773468017578  9.5713672637939453 34.2203865051269531
  3.9842293262481689  8.4011011123657227 33.8806571960449219
  6.0300555229187012  4.8594889640808105 34.2499160766601562
  0.8082193732261658  3.5952048301696777 33.9087104797363281
