Mn O 
 1.0000000000000000
     9.6192922592163086    0.0000000000000000    0.0000000000000000
     0.0000000000000000    9.6219177246093750    0.0000000000000000
     0.0000000000000000    0.0000000000000000   47.9949150085449219
 Mn  O  
  56  85
Cartesian
  7.3593196868896484  2.4668760299682617 18.6009140014648438
  7.0593175888061523  7.2790241241455078 18.6009597778320312
  4.6209573745727539  9.5029201507568359 18.2862300872802734
  9.4255228042602539  0.0808829963207245 18.3057632446289062
  4.9950737953186035  4.8904495239257812 18.3021202087402344
  0.1784684509038925  4.6961498260498047 18.2899360656738281
  2.5776672363281250  7.1210699081420898 18.5767154693603516
  2.2221601009368896  2.3109457492828369 18.5746822357177734
  4.7859792709350586  2.3646855354309082 20.2438926696777344
  0.0118211479857564  7.1791586875915527 20.2474040985107422
  7.5741372108459473  4.7193436622619629 20.7035846710205078
  6.8403396606445312  9.5314016342163086 20.7030506134033203
  2.7652080059051514  4.8187026977539062 20.6592979431152344
  2.0332462787628174  0.0088503360748291 20.6578598022460938
  4.8440408706665039  7.1843633651733398 21.0461845397949219
  9.5716247558593750  2.3755891323089600 21.0468750000000000
  7.2452383041381836  6.8605651855468750 23.0794296264648438
  7.1691508293151855  2.0479831695556641 23.0786800384521484
 -0.0040556858293712  4.8223690986633301 23.0435771942138672
  9.6028652191162109  9.6186971664428711 23.0519561767578125
  4.7988629341125488  0.0105532230809331 23.0461788177490234
  4.8149633407592773  4.8071455955505371 23.0539340972900391
  2.3839933872222900  2.7680847644805908 23.0168190002441406
  2.4135696887969971  7.5819206237792969 23.0176658630371094
  4.7512946128845215  2.4651885032653809 25.1075592041015625
  0.0495873540639877  7.2749958038330078 25.1028213500976562
  7.5263175964355469  0.0846065804362297 25.5023078918457031
  6.8967976570129395  4.8923873901367188 25.5022869110107422
  2.7280862331390381  0.0843940377235413 25.4016609191894531
  2.0651707649230957  4.8914904594421387 25.3895225524902344
  9.5661706924438477  2.4532363414764404 25.7945785522460938
  4.8441824913024902  7.2652020454406738 25.7963352203369141
  7.1983833312988281  2.7362146377563477 27.9162540435791016
  7.2140998840332031  7.5372385978698730 27.9081115722656250
  4.7959690093994141  9.6145381927490234 27.8466529846191406
  9.6093292236328125  9.5838108062744141 27.8420810699462891
  4.8008794784545898  4.7802162170410156 27.8359622955322266
  0.0211862977594137  4.7799181938171387 27.8503627777099609
  2.4166905879974365  6.8339323997497559 27.7947311401367188
  2.3746788501739502  2.0300893783569336 27.8274002075195312
  4.7537279129028320  2.3745703697204590 29.9336700439453125
  0.0407220236957073  7.1382880210876465 29.9298858642578125
  7.6128425598144531  4.8006472587585449 30.2261981964111328
  6.8315525054931641  9.5266237258911133 30.2503108978271484
  2.7838087081909180  4.7275424003601074 30.1777954101562500
  2.0748274326324463  9.4698257446289062 30.1650581359863281
  4.7239785194396973  7.2121701240539551 30.6036148071289062
  9.6056842803955078  2.2958791255950928 30.5928554534912109
  7.0471258163452148  6.9817004203796387 32.5017700195312500
  7.0919723510742188  2.1669209003448486 32.2636871337890625
  0.2069170325994492  4.7965927124023438 32.6045646667480469
  9.5565462112426758  9.3172292709350586 32.5489997863769531
  4.5698199272155762  0.0586769580841064 32.6071777343750000
  5.1052927970886230  4.7090721130371094 32.5634727478027344
  2.3017075061798096  2.6160736083984375 32.5099411010742188
  2.7974200248718262  7.2911958694458008 33.1191558837890625
  6.1573877334594727  6.1608543395996094 17.4928512573242188
  8.2673645019531250  1.3519424200057983 17.4940853118896484
  1.2927100658416748  3.3990635871887207 17.4591789245605469
  3.5075848102569580  8.2041625976562500 17.4557476043701172
  5.8758301734924316  1.3055849075317383 18.9337692260742188
  8.5447444915771484  6.1224827766418457 18.9345893859863281
  1.0938317775726318  8.2918815612792969 18.8876514434814453
  3.7107579708099365  3.4746828079223633 18.8797302246093750
  6.2877283096313477  3.8425219058990479 19.5389156341552734
  8.1289949417114258  8.6571397781372070 19.5388545989990234
  3.2850179672241211  0.9211068749427795 19.4909057617187500
  1.5123797655105591  5.7361087799072266 19.4975032806396484
  5.6322369575500488  8.2639875411987305 19.6038455963134766
  8.7829151153564453  3.4569103717803955 19.6049804687500000
  0.8060921430587769  1.3295882940292358 19.6207466125488281
  3.9936230182647705  6.1341791152954102 19.6208496093750000
  8.8238878250122070  5.9927034378051758 21.6379890441894531
  5.5896301269531250  1.1807806491851807 21.6381607055664062
  3.9145369529724121  3.4726209640502930 21.5588893890380859
  0.8828381299972534  8.2871465682983398 21.5624504089355469
  6.2122950553894043  5.5711441040039062 21.8325977325439453
  8.2010555267333984  0.7606543898582458 21.8320236206054688
  3.4429256916046143  8.8009786605834961 21.7905254364013672
  1.3534783124923706  3.9879467487335205 21.7869796752929688
  8.2918577194213867  3.3428204059600830 22.2210540771484375
  6.1222949028015137  8.1525831222534180 22.2201213836669922
  1.1959111690521240  1.3633254766464233 22.2616214752197266
  3.5992217063903809  6.1734790802001953 22.2612590789794922
  6.0019373893737793  3.4445424079895020 23.8649253845214844
  8.4217071533203125  8.2540912628173828 23.8576469421386719
  3.5038087368011475  1.4786337614059448 23.8663196563720703
  1.2905950546264648  6.2918906211853027 23.8604602813720703
  8.2658443450927734  5.6460809707641602 24.2910766601562500
  6.1489801406860352  0.8319787979125977 24.2908382415771484
  3.3921444416046143  4.0482492446899414 24.2302913665771484
  1.4070289134979248  8.8648052215576172 24.2366371154785156
  8.7038850784301758  1.3318226337432861 24.4835720062255859
  5.7165069580078125  6.1466636657714844 24.4886665344238281
  4.0138039588928223  8.4458522796630859 24.4229545593261719
  0.7812052965164185  3.6333055496215820 24.4197101593017578
  5.6088733673095703  3.6191527843475342 26.4715518951416016
  8.8180179595947266  8.4277763366699219 26.4640789031982422
  0.8673956990242004  6.1175866127014160 26.4046001434326172
  3.9177966117858887  1.3189185857772827 26.4076747894287109
  8.2168483734130859  4.0383472442626953 26.6643791198730469
  6.2148752212524414  8.8446731567382812 26.6584167480468750
  3.4351658821105957  5.6556029319763184 26.5440120697021484
  1.3535165786743164  0.8211603760719299 26.5932693481445312
  6.0880031585693359  6.2440228462219238 27.0487842559814453
  8.3165731430053711  1.4491153955459595 27.0376396179199219
  1.2150197029113770  3.4218416213989258 27.0272407531738281
  3.6029047966003418  8.2441520690917969 27.0347862243652344
  5.9840326309204102  1.3497205972671509 28.6791210174560547
  8.4441986083984375  6.1464138031005859 28.6842193603515625
  1.2766891717910767  8.1005754470825195 28.6665821075439453
  3.5412316322326660  3.3159222602844238 28.6805133819580078
  6.2089748382568359  3.9302008152008057 29.1528797149658203
  8.2326536178588867  8.7412414550781250 29.0920619964599609
  3.3910927772521973  0.7582727670669556 29.0345935821533203
  1.4084870815277100  5.5442857742309570 29.0370922088623047
  5.6581788063049316  8.2821302413940430 29.2929496765136719
  8.7485580444335938  3.4484944343566895 29.3087234497070312
  0.7966734170913696  1.1133512258529663 29.2197532653808594
  3.9986634254455566  5.9222249984741211 29.1795940399169922
  8.8219671249389648  6.0527286529541016 31.4047870635986328
  5.5965509414672852  1.2653923034667969 31.3050098419189453
  3.9920856952667236  3.5762910842895508 31.3099651336669922
  0.8523944020271301  8.2893381118774414 31.2111358642578125
  6.2793869972229004  5.9141187667846680 31.0525970458984375
  8.1504449844360352  0.8431832194328308 31.2694797515869141
  3.4664673805236816  8.6417827606201172 31.1508941650390625
  1.4508175849914551  3.7674424648284912 31.1282348632812500
  8.5226402282714844  3.4156286716461182 31.9236660003662109
  6.0717573165893555  8.4643888473510742 31.9255428314208984
  1.1064592599868774  1.2352569103240967 31.8922538757324219
  3.7890465259552002  6.1015090942382812 31.9493484497070312
  6.0595688819885254  3.2690212726593018 33.2441062927246094
  8.2587556838989258  8.1376781463623047 33.5473365783691406
  3.5415964126586914  1.5654450654983521 33.1546096801757812
  1.2361832857131958  6.2229256629943848 33.6816062927246094
  1.1436374187469482  7.6310839653015137 34.0172500610351562
  8.1713876724243164  9.4762229919433594 33.9470405578613281
  3.9744095802307129  8.5113544464111328 33.8446502685546875
  6.1396179199218750  5.9229235649108887 33.6308021545410156
  1.2857819795608521  3.6140420436859131 33.6281242370605469
