Zn O 
 1.0000000000000000
     8.0972909927368164    0.0000000000000000   -0.5697230100631714
    -3.4473609924316406    7.3267879486083984    0.5697230100631714
     0.0000000000000000    0.0000000000000000   33.0439567565917969
 Zn  O  
  36  28
Cartesian
  5.5917987823486328  1.5901048183441162 19.9672241210937500
 -0.1805274486541748  5.2534985542297363 20.5369472503662109
  0.0798372998833656 -0.0506637878715992 21.8028984069824219
  2.4048030376434326  3.6127316951751709 21.8028984069824219
  3.1779313087463379  3.1220605373382568 18.8728752136230469
 -2.5943942070007324  6.7854547500610352 19.4425983428955078
  2.8231441974639893  0.7777610421180725 20.7986125946044922
  5.1481060981750488  4.4411568641662598 20.7986164093017578
  3.1173613071441650  5.7299709320068359 22.7025814056396484
  0.7923949360847473  2.0665783882141113 22.7025814056396484
  2.6092250347137451  6.0524530410766602 19.6903934478759766
  0.2842595577239990  2.3890595436096191 19.6903934478759766
 -1.6474319696426392  6.1844677925109863 16.5672073364257812
  4.1248936653137207  2.5210726261138916 15.9974832534790039
  6.5388312339782715  0.9890730977058411 17.1348915100097656
  0.7665046453475952  4.6524677276611328 17.7046146392822266
  1.7134848833084106  4.0514678955078125 14.8736515045166016
  7.4858126640319824  0.3880737423896790 14.3039274215698242
  1.2865984439849854  1.7529263496398926 16.8569545745849609
  3.6115636825561523  5.4163212776184082 16.8569545745849609
  3.6980521678924561  0.2225031256675720 17.9806213378906250
  6.0230169296264648  3.8858976364135742 17.9806232452392578
  1.1977312564849854  6.9482545852661133 15.7195205688476562
 -1.1272333860397339  3.2848596572875977 15.7195196151733398
  2.5885887145996094  3.4960863590240479 12.0553197860717773
 -3.1837286949157715  7.1594748497009277 12.6250324249267578
 -0.6449817419052124  5.5482640266418457 13.7333459854125977
  5.1273465156555176  1.8848685026168823 13.1636238098144531
  4.6190862655639648  2.2074313163757324 10.1516466140747070
 -1.1532456874847412  5.8708286285400391 10.7213649749755859
  2.1448025703430176  6.3471984863281250 12.8866968154907227
 -0.1801627725362778  2.6838035583496094 12.8866968154907227
  2.2336385250091553  1.1518911123275757 13.9813327789306641
  4.5586023330688477  4.8152832984924316 13.9813318252563477
  3.0067546367645264  0.6612266898155212 11.0511236190795898
  5.3317222595214844  4.3246250152587891 11.0511245727539062
  7.2480707168579102  0.5389574170112610 19.2316303253173828
  1.4757430553436279  4.2023487091064453 19.8013534545898438
 -1.7933796644210815  6.2770967483520508 21.3649120330810547
  3.9789409637451172  2.6136934757232666 20.7951869964599609
  1.9515829086303711  1.3308959007263184 18.8877906799316406
  4.2765479087829590  4.9942898750305176 18.8877925872802734
  0.9861533641815186  7.0825309753417969 20.5253467559814453
 -1.3388150930404663  3.4191391468048096 20.5253505706787109
  4.8519549369812012  2.0596454143524170 17.9580154418945312
 -0.9203711152076721  5.7230386734008789 18.5277385711669922
  0.0395166650414467  5.1138482093811035 15.7183656692504883
  5.8118443489074707  1.4504536390304565 15.1486415863037109
 -3.3267643451690674  7.2502508163452148 17.4473075866699219
  2.4455618858337402  3.5868575572967529 16.8775844573974609
  2.8844492435455322  5.8777828216552734 14.8957080841064453
  0.5594833493232727  2.2143890857696533 14.8957090377807617
  2.9660072326660156  0.6870934963226318 15.9760293960571289
  5.2909727096557617  4.3504881858825684 15.9760293960571289
  1.9246405363082886  6.4869227409362793 17.7049369812011719
 -0.4003251194953918  2.8235294818878174 17.7049369812011719
 -2.3124127388000488  6.6064953804016113 14.5360593795776367
  3.4599132537841797  2.9431021213531494 13.9663419723510742
  6.7502975463867188  0.8548667430877686 12.3286762237548828
  0.9779612421989441  4.5182676315307617 12.8984060287475586
  1.4325771331787109  1.6603015661239624 12.0589494705200195
  3.7575259208679199  5.3236694335937500 12.0589504241943359
  3.9359347820281982  0.0715355351567268 13.0527582168579102
 -1.8363950252532959  3.7349240779876709 13.6224822998046875
