Mn O 
 1.0000000000000000
     9.6192922592163086    0.0000000000000000    0.0000000000000000
     0.0000000000000000    9.6219177246093750    0.0000000000000000
     0.0000000000000000    0.0000000000000000   47.9949150085449219
 Mn  O  
  56  84
Cartesian
  7.3289608955383301  2.4590902328491211 18.3460044860839844
  7.0999774932861328  7.2700481414794922 18.3460083007812500
  4.5789704322814941  9.5336742401123047 18.1306114196777344
  0.0111333681270480  0.1082588955760002 18.0419292449951172
  4.7985129356384277  4.9192175865173340 18.0419273376464844
  0.2306782156229019  4.7227125167846680 18.1306152343750000
  2.6187565326690674  6.9857959747314453 18.0053043365478516
  2.1908876895904541  2.1748385429382324 18.0053024291992188
  4.6876873970031738  2.4112241268157959 20.0018730163574219
  0.1219580024480820  7.2221827507019043 20.0018749237060547
  7.5624909400939941  4.7681756019592285 20.3445606231689453
  6.8664460182189941  9.5791358947753906 20.3445606231689453
  2.7498900890350342  4.8522310256958008 20.4499053955078125
  2.0597565174102783  0.0412734113633633 20.4499053955078125
  4.8775982856750488  7.1951208114624023 20.8323688507080078
  9.5513391494750977  2.3841614723205566 20.8323688507080078
  7.2988491058349609  6.8819146156311035 22.7148647308349609
  7.1300873756408691  2.0709550380706787 22.7148609161376953
 -0.0001276480033994  4.8390536308288574 22.7802696228027344
  0.0067149391397834  9.6214303970336914 22.8047122955322266
  4.8097734451293945  0.0280932094901800 22.7802715301513672
  4.8029308319091797  4.8104720115661621 22.8047103881835938
  2.3506402969360352  2.7698628902435303 22.8914203643798828
  2.4590046405792236  7.5808219909667969 22.8914203643798828
  4.7257738113403320  2.4461572170257568 24.8832798004150391
  0.0838726237416267  7.2571172714233398 24.8832817077636719
  7.5692477226257324  0.0267992541193962 25.1451091766357422
  6.8596897125244141  4.8377571105957031 25.1451072692871094
  2.7595856189727783  0.0267827045172453 25.2495594024658203
  2.0500605106353760  4.8377432823181152 25.2495574951171875
  9.5354213714599609  2.4461667537689209 25.5113945007324219
  4.8935160636901855  7.2571249008178711 25.5113964080810547
  7.1602621078491211  2.7698454856872559 27.5032672882080078
  7.2686767578125000  7.5808048248291016 27.5032653808593750
  4.8163542747497559  9.6214303970336914 27.5899600982666016
  0.0001269746571779  0.0280837807804346 27.6143856048583984
  4.8095192909240723  4.8390417098999023 27.6143836975097656
  9.6125841140747070  4.8104710578918457 27.5899600982666016
  2.4891772270202637  6.8819179534912109 27.6797904968261719
  2.3204698562622070  2.0709595680236816 27.6797885894775391
  4.7417016029357910  2.3841478824615479 29.5622959136962891
  0.0679443329572678  7.1951074600219727 29.5622940063476562
  7.5595464706420898  4.8522415161132812 29.9447689056396484
  6.8693909645080566  0.0412822626531124 29.9447689056396484
  2.7528316974639893  4.7681689262390137 30.0501232147216797
  2.0568151473999023  9.5791263580322266 30.0501232147216797
  4.9316153526306152  7.2222075462341309 30.3927898406982422
  9.4973230361938477  2.4112486839294434 30.3927898406982422
  7.4283523559570312  6.9857993125915527 32.3893470764160156
  7.0005850791931152  2.1748416423797607 32.3893470764160156
 -0.0111387558281422  4.9192075729370117 32.3527412414550781
  9.3885612487792969  9.5336313247680664 32.2640647888183594
  4.8207855224609375  0.1082478314638138 32.3527412414550781
  5.0403780937194824  4.7226710319519043 32.2640686035156250
  2.5193371772766113  2.4590675830841064 32.0486221313476562
  2.2903115749359131  7.2700285911560059 32.0486221313476562
  3.4047124385833740  5.6258411407470703 17.0348720550537109
  1.4049324989318848  0.8148804306983948 17.0348720550537109
  6.1451449394226074  6.0625572204589844 17.3911399841308594
  8.2837944030761719  1.2515953779220581 17.3911380767822266
  1.1884464025497437  3.5308938026428223 17.2148990631103516
  3.6211953163146973  8.3418502807617188 17.2148933410644531
  5.8048243522644043  1.3315842151641846 18.6219348907470703
  8.6241121292114258  6.1425452232360840 18.6219406127929688
  1.2410910129547119  8.2699174880981445 18.7745952606201172
  3.5685551166534424  3.4589581489562988 18.7745933532714844
  6.2042427062988281  3.8722145557403564 19.2040462493896484
  8.2246952056884766  8.6831750869750977 19.2040481567382812
  3.3008944988250732  0.9104731082916260 19.2217884063720703
  1.5087531805038452  5.7214336395263672 19.2217903137207031
  5.6768507957458496  8.2801342010498047 19.3025093078613281
  8.7520866394042969  3.4691736698150635 19.3025112152099609
  0.8056442737579346  1.2992881536483765 19.5782260894775391
  4.0040020942687988  6.1102471351623535 19.5782260894775391
  8.8631963729858398  6.0255017280578613 21.2999725341796875
  5.5657410621643066  1.2145431041717529 21.2999706268310547
  3.9585170745849609  3.6001656055450439 21.4352397918701172
  0.8511285185813904  8.4111251831054688 21.4352416992187500
  6.2806954383850098  5.6677432060241699 21.4565734863281250
  8.1482419967651367  0.8567835092544556 21.4565734863281250
  3.4587652683258057  8.8242950439453125 21.5911197662353516
  1.3508801460266113  4.0133357048034668 21.5911178588867188
  8.2739372253417969  3.4111742973327637 21.9330463409423828
  6.1550011634826660  8.2221336364746094 21.9330463409423828
  1.1999927759170532  1.3999613523483276 22.1033115386962891
  3.6096527576446533  6.2109198570251465 22.1033115386962891
  5.9727334976196289  3.4187829494476318 23.5743274688720703
  8.4562034606933594  8.2297420501708984 23.5743312835693359
  3.4981405735015869  1.4397691488265991 23.6899585723876953
  1.3115061521530151  6.2507286071777344 23.6899585723876953
  8.2585849761962891  5.6273121833801270 23.9586582183837891
  6.1703524589538574  0.8163524866104126 23.9586563110351562
  3.3454949855804443  3.9835708141326904 24.1322727203369141
  1.4641511440277100  8.7945299148559570 24.1322746276855469
  8.7747707366943359  1.2483564615249634 24.1334781646728516
  5.6541662216186523  6.0593147277832031 24.1334800720214844
  4.0423550605773926  8.4209423065185547 24.2128143310546875
  0.7672903537750244  3.6099848747253418 24.2128124237060547
  5.5769371986389160  3.6099727153778076 26.1818580627441406
  8.8520011901855469  8.4209327697753906 26.1818599700927734
  0.8445125818252563  6.0593304634094238 26.2611827850341797
  3.9651348590850830  1.2483707666397095 26.2611827850341797
  6.2737836837768555  8.7945308685302734 26.2623977661132812
  8.1551551818847656  3.9835717678070068 26.2623958587646484
  3.4489414691925049  5.6273131370544434 26.4360122680664062
  1.3607052564620972  0.8163546919822693 26.4360103607177734
  6.1211357116699219  6.2507247924804688 26.7046947479248047
  8.3078022003173828  1.4397667646408081 26.7046947479248047
  1.1630650758743286  3.4188029766082764 26.8203315734863281
  3.6465814113616943  8.2297611236572266 26.8203334808349609
  6.0096712112426758  1.3999716043472290 28.2913589477539062
  8.4192676544189453  6.2109308242797852 28.2913589477539062
  1.3453738689422607  8.2221450805664062 28.4615993499755859
  3.4642729759216309  3.4111859798431396 28.4615993499755859
  6.1605353355407715  4.0133295059204102 28.8035583496093750
  8.2684030532836914  8.8242883682250977 28.8035583496093750
  3.3385853767395020  0.8567949533462524 28.9380798339843750
  1.4710607528686523  5.6677541732788086 28.9380798339843750
  5.6607766151428223  8.4111270904541016 28.9594211578369141
  8.7681608200073242  3.6001679897308350 28.9594211578369141
  0.7561050057411194  1.2145433425903320 29.0946712493896484
  4.0535407066345215  6.0255026817321777 29.0946712493896484
  8.8136262893676758  6.1102409362792969 30.8164672851562500
  5.6153111457824707  1.2992812395095825 30.8164691925048828
  3.9424369335174561  3.4691865444183350 31.0921306610107422
  0.8672102689743042  8.2801446914672852 31.0921306610107422
  6.3184232711791992  5.7214608192443848 31.1728477478027344
  8.1105136871337891  0.9105022549629211 31.1728477478027344
  3.4150726795196533  8.6831874847412109 31.1906223297119141
  1.3945739269256592  3.8722286224365234 31.1906223297119141
  8.3781986236572266  3.4589483737945557 31.6200580596923828
  6.0507388114929199  8.2699069976806641 31.6200580596923828
  3.8144252300262451  6.1425833702087402 31.7726840972900391
  0.9952208995819092  1.3316230773925781 31.7726821899414062
  5.9980812072753906  3.5309946537017822 33.1797027587890625
  8.4308547973632812  8.3419532775878906 33.1796989440917969
  3.4741647243499756  1.2516293525695801 33.0035247802734375
  1.3354810476303101  6.0625872611999512 33.0035247802734375
  8.2143659591674805  5.6258373260498047 33.3598213195800781
  6.2145729064941406  0.8148772716522217 33.3598213195800781
