Mn O 
 1.0000000000000000
     9.6192922592163086    0.0000000000000000    0.0000000000000000
     0.0000000000000000    9.6219177246093750    0.0000000000000000
     0.0000000000000000    0.0000000000000000   47.9949150085449219
 Mn  O  
  56  84
Cartesian
  7.1662764549255371  2.7449214458465576 17.9479866027832031
  7.2626614570617676  7.5558805465698242 17.9479866027832031
  4.8096461296081543  0.0000000000000000 17.9980926513671875
  0.0000000000000000  0.0000000000000000 17.9980926513671875
  4.8096461296081543  4.8109588623046875 17.9980926513671875
  0.0000000000000000  4.8109588623046875 17.9980926513671875
  2.4530155658721924  6.8769965171813965 18.0482006072998047
  2.3566303253173828  2.0660374164581299 18.0482006072998047
  4.7467455863952637  2.3840417861938477 20.0667705535888672
  0.0629005506634712  7.1950006484985352 20.0667705535888672
  7.5590705871582031  4.7997975349426270 20.3702411651611328
  6.8698673248291016  9.6107568740844727 20.3702411651611328
  2.7494244575500488  4.7997975349426270 20.4254360198974609
  2.0602214336395264  9.6107568740844727 20.4254360198974609
  4.8725466728210449  7.1950006484985352 20.7289085388183594
  9.5563917160034180  2.3840417861938477 20.7289085388183594
  7.2626614570617676  6.8769965171813965 22.7474784851074219
  7.1662764549255371  2.0660374164581299 22.7474784851074219
  0.0000000000000000  4.8109588623046875 22.7975845336914062
  0.0000000000000000  0.0000000000000000 22.7975845336914062
  4.8096461296081543  0.0000000000000000 22.7975845336914062
  4.8096461296081543  4.8109588623046875 22.7975845336914062
  2.3566303253173828  2.7449214458465576 22.8476905822753906
  2.4530155658721924  7.5558805465698242 22.8476905822753906
  4.7467455863952637  2.4269170761108398 24.8662605285644531
  0.0629005506634712  7.2378759384155273 24.8662605285644531
  7.5590705871582031  0.0111614251509309 25.1697330474853516
  6.8698673248291016  4.8221201896667480 25.1697330474853516
  2.7494244575500488  0.0111614251509309 25.2249279022216797
  2.0602214336395264  4.8221201896667480 25.2249279022216797
  9.5563917160034180  2.4269170761108398 25.5283985137939453
  4.8725466728210449  7.2378759384155273 25.5283985137939453
  7.1662764549255371  2.7449214458465576 27.5469703674316406
  7.2626614570617676  7.5558805465698242 27.5469703674316406
  4.8096461296081543  0.0000000000000000 27.5970764160156250
  0.0000000000000000  0.0000000000000000 27.5970764160156250
  4.8096461296081543  4.8109588623046875 27.5970764160156250
  0.0000000000000000  4.8109588623046875 27.5970764160156250
  2.4530155658721924  6.8769965171813965 27.6471824645996094
  2.3566303253173828  2.0660374164581299 27.6471824645996094
  4.7467455863952637  2.3840417861938477 29.6657524108886719
  0.0629005506634712  7.1950006484985352 29.6657524108886719
  7.5590705871582031  4.7997975349426270 29.9692249298095703
  6.8698673248291016  9.6107568740844727 29.9692249298095703
  2.7494244575500488  4.7997975349426270 30.0244197845458984
  2.0602214336395264  9.6107568740844727 30.0244197845458984
  4.8725466728210449  7.1950006484985352 30.3278903961181641
  9.5563917160034180  2.3840417861938477 30.3278903961181641
  7.2626614570617676  6.8769965171813965 32.3464622497558594
  7.1662764549255371  2.0660374164581299 32.3464622497558594
  0.0000000000000000  4.8109588623046875 32.3965682983398438
  0.0000000000000000  0.0000000000000000 32.3965682983398438
  4.8096461296081543  0.0000000000000000 32.3965682983398438
  4.8096461296081543  4.8109588623046875 32.3965682983398438
  2.3566303253173828  2.7449214458465576 32.4466743469238281
  2.4530155658721924  7.5558805465698242 32.4466743469238281
  3.4526140689849854  5.6248769760131836 16.7970676422119141
  1.3570319414138794  0.8139180541038513 16.7970676422119141
  6.1234102249145508  6.2205123901367188 17.1249694824218750
  8.3055276870727539  1.4095532894134521 17.1249694824218750
  1.1947352886199951  3.4284434318542480 17.2096805572509766
  3.6149106025695801  8.2394027709960938 17.2096805572509766
  6.0043811798095703  1.3825156688690186 18.7865047454833984
  8.4245567321777344  6.1934747695922852 18.7865047454833984
  1.3137644529342651  8.2123651504516602 18.8712158203125000
  3.4958815574645996  3.4014058113098145 18.8712158203125000
  6.1666779518127441  3.9970409870147705 19.1991176605224609
  8.2622604370117188  8.8079996109008789 19.1991176605224609
  3.3695130348205566  0.8413789868354797 19.3012504577636719
  1.4401330947875977  5.6523380279541016 19.3012504577636719
  5.6538543701171875  8.3728876113891602 19.3500137329101562
  8.7750835418701172  3.5619282722473145 19.3500137329101562
  0.7871851325035095  1.2334337234497070 19.4053516387939453
  4.0224609375000000  6.0443925857543945 19.4053516387939453
  8.8321065902709961  6.0443925857543945 21.3903255462646484
  5.5968313217163086  1.2334337234497070 21.3903255462646484
  3.9654376506805420  3.5619282722473145 21.4456634521484375
  0.8442083001136780  8.3728876113891602 21.4456634521484375
  6.2497792243957520  5.6523380279541016 21.4944267272949219
  8.1791591644287109  0.8413789868354797 21.4944267272949219
  3.4526140689849854  8.8079996109008789 21.5965595245361328
  1.3570319414138794  3.9970409870147705 21.5965595245361328
  8.3055276870727539  3.4014058113098145 21.9244613647460938
  6.1234102249145508  8.2123651504516602 21.9244613647460938
  1.1947352886199951  1.3825156688690186 22.0091724395751953
  3.6149106025695801  6.1934747695922852 22.0091724395751953
  6.0043811798095703  3.4284434318542480 23.5859966278076172
  8.4245567321777344  8.2394027709960938 23.5859966278076172
  3.4958815574645996  1.4095532894134521 23.6707077026367188
  1.3137644529342651  6.2205123901367188 23.6707077026367188
  8.2622604370117188  5.6248769760131836 23.9986095428466797
  6.1666779518127441  0.8139180541038513 23.9986095428466797
  3.3695130348205566  3.9695799350738525 24.1007423400878906
  1.4401330947875977  8.7805385589599609 24.1007423400878906
  8.7750835418701172  1.2490308284759521 24.1495056152343750
  5.6538543701171875  6.0599899291992188 24.1495056152343750
  4.0224609375000000  8.3884840011596680 24.2048435211181641
  0.7871851325035095  3.5775253772735596 24.2048435211181641
  5.5968313217163086  3.5775253772735596 26.1898174285888672
  8.8321065902709961  8.3884840011596680 26.1898174285888672
  0.8442083001136780  6.0599899291992188 26.2451553344726562
  3.9654376506805420  1.2490308284759521 26.2451553344726562
  6.2497792243957520  8.7805385589599609 26.2939186096191406
  8.1791591644287109  3.9695799350738525 26.2939186096191406
  3.4526140689849854  5.6248769760131836 26.3960514068603516
  1.3570319414138794  0.8139180541038513 26.3960514068603516
  6.1234102249145508  6.2205123901367188 26.7239532470703125
  8.3055276870727539  1.4095532894134521 26.7239532470703125
  1.1947352886199951  3.4284434318542480 26.8086643218994141
  3.6149106025695801  8.2394027709960938 26.8086643218994141
  6.0043811798095703  1.3825156688690186 28.3854885101318359
  8.4245567321777344  6.1934747695922852 28.3854885101318359
  1.3137644529342651  8.2123651504516602 28.4701995849609375
  3.4958815574645996  3.4014058113098145 28.4701995849609375
  6.1666779518127441  3.9970409870147705 28.7981014251708984
  8.2622604370117188  8.8079996109008789 28.7981014251708984
  3.3695130348205566  0.8413789868354797 28.9002342224121094
  1.4401330947875977  5.6523380279541016 28.9002342224121094
  5.6538543701171875  8.3728876113891602 28.9489974975585938
  8.7750835418701172  3.5619282722473145 28.9489974975585938
  0.7871851325035095  1.2334337234497070 29.0043354034423828
  4.0224609375000000  6.0443925857543945 29.0043354034423828
  8.8321065902709961  6.0443925857543945 30.9893093109130859
  5.5968313217163086  1.2334337234497070 30.9893093109130859
  3.9654376506805420  3.5619282722473145 31.0446472167968750
  0.8442083001136780  8.3728876113891602 31.0446472167968750
  6.2497792243957520  5.6523380279541016 31.0934104919433594
  8.1791591644287109  0.8413789868354797 31.0934104919433594
  3.4526140689849854  8.8079996109008789 31.1955432891845703
  1.3570319414138794  3.9970409870147705 31.1955432891845703
  8.3055276870727539  3.4014058113098145 31.5234432220458984
  6.1234102249145508  8.2123651504516602 31.5234432220458984
  3.6149106025695801  6.1934747695922852 31.6081542968750000
  1.1947352886199951  1.3825156688690186 31.6081542968750000
  6.0043811798095703  3.4284434318542480 33.1849784851074219
  8.4245567321777344  8.2394027709960938 33.1849784851074219
  3.4958815574645996  1.4095532894134521 33.2696914672851562
  1.3137644529342651  6.2205123901367188 33.2696914672851562
  8.2622604370117188  5.6248769760131836 33.5975914001464844
  6.1666779518127441  0.8139180541038513 33.5975914001464844
