Mn O 
 1.0000000000000000
     9.6192922592163086    0.0000000000000000    0.0000000000000000
     0.0000000000000000    9.6219177246093750    0.0000000000000000
     0.0000000000000000    0.0000000000000000   47.9949150085449219
 Mn  O  
  56  84
Cartesian
  7.3323068618774414  2.4641396999359131 18.3298664093017578
  7.0966310501098633  7.2750978469848633 18.3298721313476562
  4.5828695297241211  9.5387487411499023 18.1294097900390625
  0.0130195189267397  0.1130223199725151 18.0254077911376953
  4.7966256141662598  4.9239811897277832 18.0254077911376953
  0.2267772108316422  4.7277889251708984 18.1294116973876953
  2.6145319938659668  6.9898667335510254 17.9956970214843750
  2.1951131820678711  2.1789078712463379 17.9956989288330078
  4.6908359527587891  2.4135117530822754 19.9919719696044922
  0.1188106685876846  7.2244710922241211 19.9919719696044922
  7.5593433380126953  4.7670221328735352 20.3415832519531250
  6.8695936203002930  9.5779829025268555 20.3415832519531250
  2.7506649494171143  4.8557972908020020 20.4466762542724609
  2.0589823722839355  0.0448397733271122 20.4466781616210938
  4.8797030448913574  7.1909251213073730 20.8245410919189453
  9.5492343902587891  2.3799664974212646 20.8245410919189453
  7.2995014190673828  6.8764958381652832 22.7157630920410156
  7.1294360160827637  2.0655367374420166 22.7157611846923828
 -0.0018758581718430  4.8344674110412598 22.7755184173583984
  0.0063493098132312  9.6179695129394531 22.8046569824218750
  4.8115215301513672  0.0235076919198036 22.7755184173583984
  4.8032960891723633  4.8070096969604492 22.8046569824218750
  2.3517768383026123  2.7679729461669922 22.8819122314453125
  2.4578678607940674  7.5789322853088379 22.8819103240966797
  4.7236900329589844  2.4460010528564453 24.8839263916015625
  0.0859561637043953  7.2569613456726074 24.8839263916015625
  7.5689444541931152  0.0259918794035912 25.1508216857910156
  6.8599934577941895  4.8369498252868652 25.1508216857910156
  2.7592968940734863  0.0260128546506166 25.2438106536865234
  2.0503489971160889  4.8369731903076172 25.2438106536865234
  9.5333318710327148  2.4459969997406006 25.5107078552246094
  4.8956055641174316  7.2569551467895508 25.5107078552246094
  7.1614165306091309  2.7679705619812012 27.5127048492431641
  7.2675228118896484  7.5789294242858887 27.5127029418945312
  4.8160033226013184  9.6179714202880859 27.5900173187255859
  0.0018655655439943  0.0235061533749104 27.6191539764404297
  4.8077812194824219  4.8344650268554688 27.6191539764404297
  9.6129350662231445  4.8070135116577148 27.5900154113769531
  2.4898388385772705  6.8765029907226562 27.6788539886474609
  2.3198084831237793  2.0655436515808105 27.6788501739501953
  4.7396011352539062  2.3799600601196289 29.5701427459716797
  0.0700444132089615  7.1909193992614746 29.5701427459716797
  7.5603094100952148  4.8557934761047363 29.9479789733886719
  6.8686280250549316  0.0448343865573406 29.9479808807373047
  2.7497057914733887  4.7670130729675293 30.0530681610107422
  2.0599410533905029  9.5779705047607422 30.0530681610107422
  4.9284667968750000  7.2244534492492676 30.4026699066162109
  9.5004711151123047  2.4134936332702637 30.4026699066162109
  7.4240922927856445  6.9898834228515625 32.3989219665527344
  7.0048460960388184  2.1789240837097168 32.3989257812500000
 -0.0129919117316604  4.9239435195922852 32.3692359924316406
  9.3924627304077148  9.5387735366821289 32.2652244567871094
  4.8226385116577148  0.1129845082759857 32.3692359924316406
  5.0364747047424316  4.7278146743774414 32.2652244567871094
  2.5226583480834961  2.4640779495239258 32.0647621154785156
  2.2869884967803955  7.2750377655029297 32.0647697448730469
  3.3990352153778076  5.6298365592956543 17.0229434967041016
  1.4106094837188721  0.8188791275024414 17.0229434967041016
  6.1361503601074219  6.0738186836242676 17.3718013763427734
  8.2927875518798828  1.2628597021102905 17.3717975616455078
  1.1899509429931641  3.5389504432678223 17.2163810729980469
  3.6196970939636230  8.3499078750610352 17.2163791656494141
  5.8134937286376953  1.3327844142913818 18.6173305511474609
  8.6154460906982422  6.1437444686889648 18.6173305511474609
  1.2327787876129150  8.2686042785644531 18.7585258483886719
  3.5768673419952393  3.4576451778411865 18.7585258483886719
  6.2043886184692383  3.8774194717407227 19.1917533874511719
  8.2245492935180664  8.6883773803710938 19.1917552947998047
  3.3018140792846680  0.9170720577239990 19.2192096710205078
  1.5078331232070923  5.7280311584472656 19.2192096710205078
  5.6769299507141113  8.2823104858398438 19.2974567413330078
  8.7520065307617188  3.4713506698608398 19.2974567413330078
  0.8061459064483643  1.2939561605453491 19.5702304840087891
  4.0035014152526855  6.1049151420593262 19.5702285766601562
  8.8606433868408203  6.0247559547424316 21.2936344146728516
  5.5682935714721680  1.2137969732284546 21.2936344146728516
  3.9591903686523438  3.5975539684295654 21.4273033142089844
  0.8504550457000732  8.4085140228271484 21.4273033142089844
  6.2793645858764648  5.6627001762390137 21.4592533111572266
  8.1495733261108398  0.8517412543296814 21.4592533111572266
  3.4617390632629395  8.8181886672973633 21.5843048095703125
  1.3479067087173462  4.0072293281555176 21.5843048095703125
  8.2725677490234375  3.4071652889251709 21.9278373718261719
  6.1563696861267090  8.2181243896484375 21.9278373718261719
  1.1970067024230957  1.3963636159896851 22.0986766815185547
  3.6126389503479004  6.2073221206665039 22.0986747741699219
  5.9695525169372559  3.4143652915954590 23.5774517059326172
  8.4593858718872070  8.2253246307373047 23.5774536132812500
  3.4965872764587402  1.4400603771209717 23.6884918212890625
  1.3130575418472290  6.2510204315185547 23.6884899139404297
  8.2592630386352539  5.6188931465148926 23.9574127197265625
  6.1696743965148926  0.8079341053962708 23.9574108123779297
  3.3440840244293213  3.9852244853973389 24.1241874694824219
  1.4655621051788330  8.7961835861206055 24.1241874694824219
  8.7726621627807617  1.2472877502441406 24.1363773345947266
  5.6562752723693848  6.0582461357116699 24.1363754272460938
  4.0419735908508301  8.4201784133911133 24.2107982635498047
  0.7676719427108765  3.6092202663421631 24.2107982635498047
  5.5773353576660156  3.6092078685760498 26.1838665008544922
  8.8516035079956055  8.4201679229736328 26.1838665008544922
  0.8466264009475708  6.0582561492919922 26.2582798004150391
  3.9630200862884521  1.2472966909408569 26.2582798004150391
  6.2752232551574707  8.7961854934692383 26.2704696655273438
  8.1537151336669922  3.9852271080017090 26.2704696655273438
  3.4496104717254639  5.6188874244689941 26.4372482299804688
  1.3600357770919800  0.8079278469085693 26.4372482299804688
  6.1226801872253418  6.2510209083557129 26.7061595916748047
  8.3062582015991211  1.4400624036788940 26.7061595916748047
  1.1598923206329346  3.4143731594085693 26.8171977996826172
  3.6497538089752197  8.2253322601318359 26.8171997070312500
  6.0066676139831543  1.3963631391525269 28.2960338592529297
  8.4222707748413086  6.2073225975036621 28.2960338592529297
  1.3467139005661011  8.2181053161621094 28.4668579101562500
  3.4629323482513428  3.4071464538574219 28.4668560028076172
  6.1575617790222168  4.0072417259216309 28.8103752136230469
  8.2713766098022461  8.8182001113891602 28.8103752136230469
  3.3399264812469482  0.8517330288887024 28.9354190826416016
  1.4697195291519165  5.6626925468444824 28.9354190826416016
  5.6601061820983887  8.4085102081298828 28.9673862457275391
  8.7688322067260742  3.5975518226623535 28.9673862457275391
  0.7586297988891602  1.2138031721115112 29.1010456085205078
  4.0510163307189941  6.0247621536254883 29.1010456085205078
  8.8131132125854492  6.1049218177795410 30.8244533538818359
  5.6158242225646973  1.2939625978469849 30.8244533538818359
  3.9423489570617676  3.4713096618652344 31.0972023010253906
  0.8672988414764404  8.2822685241699219 31.0972042083740234
  6.3175039291381836  5.7280311584472656 31.1754951477050781
  8.1114330291748047  0.9170722365379333 31.1754951477050781
  3.4149038791656494  8.6883726119995117 31.2029190063476562
  1.3947432041168213  3.8774123191833496 31.2029170989990234
  8.3864908218383789  3.4576132297515869 31.6361694335937500
  6.0424470901489258  8.2685728073120117 31.6361694335937500
  3.8058176040649414  6.1437110900878906 31.7773227691650391
  1.0038269758224487  1.3327522277832031 31.7773227691650391
  5.9995794296264648  3.5389525890350342 33.1782875061035156
  8.4293565750122070  8.3499135971069336 33.1782836914062500
  3.4831900596618652  1.2628849744796753 33.0228538513183594
  1.3264565467834473  6.0738430023193359 33.0228576660156250
  8.2087020874023438  5.6298508644104004 33.3717117309570312
  6.2202372550964355  0.8188898563385010 33.3717155456542969
