Mn O 
 1.0000000000000000
     9.6192922592163086    0.0000000000000000    0.0000000000000000
     0.0000000000000000    9.6219177246093750    0.0000000000000000
     0.0000000000000000    0.0000000000000000   47.9949150085449219
 Mn  O  
  56  80
Cartesian
  7.1662764549255371  2.7449214458465576 18.1879615783691406
  7.2626614570617676  7.5558805465698242 18.1879615783691406
  4.8096461296081543  0.0000000000000000 18.2380676269531250
  0.0000000000000000  0.0000000000000000 18.2380676269531250
  4.8096461296081543  4.8109588623046875 18.2380676269531250
  0.0000000000000000  4.8109588623046875 18.2380676269531250
  2.4530155658721924  6.8769965171813965 18.2881736755371094
  2.3566303253173828  2.0660374164581299 18.2881736755371094
  4.7467455863952637  2.3840417861938477 20.3067436218261719
  0.0629005506634712  7.1950006484985352 20.3067436218261719
  7.5590705871582031  4.7997975349426270 20.6102161407470703
  6.8698673248291016  9.6107568740844727 20.6102161407470703
  2.7494244575500488  4.7997975349426270 20.6654109954833984
  2.0602214336395264  9.6107568740844727 20.6654109954833984
  4.8725466728210449  7.1950006484985352 20.9688816070556641
  9.5563917160034180  2.3840417861938477 20.9688816070556641
  7.2626614570617676  6.8769965171813965 22.9874534606933594
  7.1662764549255371  2.0660374164581299 22.9874534606933594
  0.0000000000000000  4.8109588623046875 23.0375595092773438
  0.0000000000000000  0.0000000000000000 23.0375595092773438
  4.8096461296081543  0.0000000000000000 23.0375595092773438
  4.8096461296081543  4.8109588623046875 23.0375595092773438
  2.3566303253173828  2.7449214458465576 23.0876655578613281
  2.4530155658721924  7.5558805465698242 23.0876655578613281
  4.7467455863952637  2.4269170761108398 25.1062355041503906
  0.0629005506634712  7.2378759384155273 25.1062355041503906
  7.5590705871582031  0.0111614251509309 25.4097080230712891
  6.8698673248291016  4.8221201896667480 25.4097080230712891
  2.7494244575500488  0.0111614251509309 25.4649028778076172
  2.0602214336395264  4.8221201896667480 25.4649028778076172
  9.5563917160034180  2.4269170761108398 25.7683734893798828
  4.8725466728210449  7.2378759384155273 25.7683734893798828
  7.1662764549255371  2.7449214458465576 27.7869434356689453
  7.2626614570617676  7.5558805465698242 27.7869434356689453
  4.8096461296081543  0.0000000000000000 27.8370513916015625
  0.0000000000000000  0.0000000000000000 27.8370513916015625
  4.8096461296081543  4.8109588623046875 27.8370513916015625
  0.0000000000000000  4.8109588623046875 27.8370513916015625
  2.4530155658721924  6.8769965171813965 27.8871574401855469
  2.3566303253173828  2.0660374164581299 27.8871574401855469
  4.7467455863952637  2.3840417861938477 29.9057273864746094
  0.0629005506634712  7.1950006484985352 29.9057273864746094
  7.5590705871582031  4.7997975349426270 30.2091999053955078
  6.8698673248291016  9.6107568740844727 30.2091999053955078
  2.7494244575500488  4.7997975349426270 30.2643928527832031
  2.0602214336395264  9.6107568740844727 30.2643928527832031
  4.8725466728210449  7.1950006484985352 30.5678653717041016
  9.5563917160034180  2.3840417861938477 30.5678653717041016
  7.2626614570617676  6.8769965171813965 32.5864372253417969
  7.1662764549255371  2.0660374164581299 32.5864372253417969
  0.0000000000000000  4.8109588623046875 32.6365432739257812
  0.0000000000000000  0.0000000000000000 32.6365432739257812
  4.8096461296081543  0.0000000000000000 32.6365432739257812
  4.8096461296081543  4.8109588623046875 32.6365432739257812
  2.3566303253173828  2.7449214458465576 32.6866493225097656
  2.4530155658721924  7.5558805465698242 32.6866493225097656
  6.1234102249145508  6.2205123901367188 17.3649444580078125
  8.3055276870727539  1.4095532894134521 17.3649444580078125
  1.1947352886199951  3.4284434318542480 17.4496555328369141
  3.6149106025695801  8.2394027709960938 17.4496555328369141
  6.0043811798095703  1.3825156688690186 19.0264797210693359
  8.4245567321777344  6.1934747695922852 19.0264797210693359
  1.3137644529342651  8.2123651504516602 19.1111907958984375
  3.4958815574645996  3.4014058113098145 19.1111907958984375
  6.1666779518127441  3.9970409870147705 19.4390926361083984
  8.2622604370117188  8.8079996109008789 19.4390926361083984
  3.3695130348205566  0.8413789868354797 19.5412254333496094
  1.4401330947875977  5.6523380279541016 19.5412254333496094
  5.6538543701171875  8.3728876113891602 19.5899887084960938
  8.7750835418701172  3.5619282722473145 19.5899887084960938
  0.7871851325035095  1.2334337234497070 19.6453266143798828
  4.0224609375000000  6.0443925857543945 19.6453266143798828
  8.8321065902709961  6.0443925857543945 21.6303005218505859
  5.5968313217163086  1.2334337234497070 21.6303005218505859
  3.9654376506805420  3.5619282722473145 21.6856384277343750
  0.8442083001136780  8.3728876113891602 21.6856384277343750
  6.2497792243957520  5.6523380279541016 21.7344017028808594
  8.1791591644287109  0.8413789868354797 21.7344017028808594
  3.4526140689849854  8.8079996109008789 21.8365345001220703
  1.3570319414138794  3.9970409870147705 21.8365345001220703
  8.3055276870727539  3.4014058113098145 22.1644363403320312
  6.1234102249145508  8.2123651504516602 22.1644363403320312
  1.1947352886199951  1.3825156688690186 22.2491474151611328
  3.6149106025695801  6.1934747695922852 22.2491474151611328
  6.0043811798095703  3.4284434318542480 23.8259716033935547
  8.4245567321777344  8.2394027709960938 23.8259716033935547
  3.4958815574645996  1.4095532894134521 23.9106826782226562
  1.3137644529342651  6.2205123901367188 23.9106826782226562
  8.2622604370117188  5.6248769760131836 24.2385845184326172
  6.1666779518127441  0.8139180541038513 24.2385845184326172
  3.3695130348205566  3.9695799350738525 24.3407173156738281
  1.4401330947875977  8.7805385589599609 24.3407173156738281
  8.7750835418701172  1.2490308284759521 24.3894805908203125
  5.6538543701171875  6.0599899291992188 24.3894805908203125
  4.0224609375000000  8.3884840011596680 24.4448184967041016
  0.7871851325035095  3.5775253772735596 24.4448184967041016
  5.5968313217163086  3.5775253772735596 26.4297924041748047
  8.8321065902709961  8.3884840011596680 26.4297924041748047
  0.8442083001136780  6.0599899291992188 26.4851303100585938
  3.9654376506805420  1.2490308284759521 26.4851303100585938
  8.1791591644287109  3.9695799350738525 26.5338935852050781
  6.2497792243957520  8.7805385589599609 26.5338935852050781
  3.4526140689849854  5.6248769760131836 26.6360263824462891
  1.3570319414138794  0.8139180541038513 26.6360263824462891
  6.1234102249145508  6.2205123901367188 26.9639263153076172
  8.3055276870727539  1.4095532894134521 26.9639263153076172
  1.1947352886199951  3.4284434318542480 27.0486373901367188
  3.6149106025695801  8.2394027709960938 27.0486373901367188
  6.0043811798095703  1.3825156688690186 28.6254634857177734
  8.4245567321777344  6.1934747695922852 28.6254634857177734
  1.3137644529342651  8.2123651504516602 28.7101745605468750
  3.4958815574645996  3.4014058113098145 28.7101745605468750
  6.1666779518127441  3.9970409870147705 29.0380764007568359
  8.2622604370117188  8.8079996109008789 29.0380764007568359
  3.3695130348205566  0.8413789868354797 29.1402091979980469
  1.4401330947875977  5.6523380279541016 29.1402091979980469
  5.6538543701171875  8.3728876113891602 29.1889705657958984
  8.7750835418701172  3.5619282722473145 29.1889705657958984
  0.7871851325035095  1.2334337234497070 29.2443103790283203
  4.0224609375000000  6.0443925857543945 29.2443103790283203
  8.8321065902709961  6.0443925857543945 31.2292823791503906
  5.5968313217163086  1.2334337234497070 31.2292823791503906
  3.9654376506805420  3.5619282722473145 31.2846221923828125
  0.8442083001136780  8.3728876113891602 31.2846221923828125
  6.2497792243957520  5.6523380279541016 31.3333835601806641
  8.1791591644287109  0.8413789868354797 31.3333835601806641
  3.4526140689849854  8.8079996109008789 31.4355182647705078
  1.3570319414138794  3.9970409870147705 31.4355182647705078
  8.3055276870727539  3.4014058113098145 31.7634181976318359
  6.1234102249145508  8.2123651504516602 31.7634181976318359
  1.1947352886199951  1.3825156688690186 31.8481292724609375
  3.6149106025695801  6.1934747695922852 31.8481292724609375
  6.0043811798095703  3.4284434318542480 33.4249534606933594
  8.4245567321777344  8.2394027709960938 33.4249534606933594
  3.4958815574645996  1.4095532894134521 33.5096664428710938
  1.3137644529342651  6.2205123901367188 33.5096664428710938
