Mn O 
 1.0000000000000000
     9.6192922592163086    0.0000000000000000    0.0000000000000000
     0.0000000000000000    9.6219177246093750    0.0000000000000000
     0.0000000000000000    0.0000000000000000   47.9949150085449219
 Mn  O  
  56  80
Cartesian
  7.3749523162841797  2.4888634681701660 18.5587139129638672
  7.0539851188659668  7.2998247146606445 18.5587158203125000
  4.6186881065368652  9.5352306365966797 18.2511005401611328
  9.4410867691040039  0.1126535087823868 18.2993659973144531
  4.9878506660461426  4.9236125946044922 18.2993679046630859
  0.1909570842981339  4.7242732048034668 18.2510967254638672
  2.5791802406311035  7.1378946304321289 18.5555496215820312
  2.2304649353027344  2.3269357681274414 18.5555496215820312
  4.7893548011779785  2.4001150131225586 20.2312316894531250
  0.0202908385545015  7.2110743522644043 20.2312316894531250
  7.6052632331848145  4.7642254829406738 20.6297912597656250
  6.8236751556396484  9.5751857757568359 20.6297912597656250
  2.7602407932281494  4.8430728912353516 20.6698265075683594
  2.0494046211242676  0.0321137271821499 20.6698246002197266
  4.8597984313964844  7.2043180465698242 21.0263500213623047
  9.5691404342651367  2.3933589458465576 21.0263519287109375
  7.2737402915954590  6.8622627258300781 22.9789962768554688
  7.1551985740661621  2.0513033866882324 22.9789981842041016
  0.0062332050874829  4.8171720504760742 23.0386409759521484
 -0.0042670215480030  9.5984649658203125 23.0152301788330078
  4.8034129142761230  0.0062131611630321 23.0386409759521484
  4.8139133453369141  4.7875065803527832 23.0152301788330078
  2.3600990772247314  2.7479522228240967 23.0864105224609375
  2.4495470523834229  7.5589118003845215 23.0864105224609375
  4.7248263359069824  2.4353990554809570 25.1108837127685547
  0.0848196446895599  7.2463579177856445 25.1108837127685547
  7.5596017837524414  0.0179356392472982 25.4062118530273438
  6.8693361282348633  4.8288941383361816 25.4062118530273438
  2.7499542236328125  0.0179364103823900 25.4684028625488281
  2.0596923828125000  4.8288960456848145 25.4684028625488281
  9.5344715118408203  2.4353981018066406 25.7637290954589844
  4.8944664001464844  7.2463574409484863 25.7637290954589844
  7.1697459220886230  2.7479541301727295 27.7882041931152344
  7.2591924667358398  7.5589127540588379 27.7882022857666016
  4.8053779602050781  9.5984649658203125 27.8593807220458984
 -0.0062338784337044  0.0062134498730302 27.8359756469726562
  4.8158802986145020  4.8171725273132324 27.8359756469726562
  0.0042678876779974  4.7875056266784668 27.8593807220458984
  2.4640941619873047  6.8622622489929199 27.8956184387207031
  2.3455517292022705  2.0513036251068115 27.8956203460693359
  4.7594909667968750  2.3933594226837158 29.8482608795166016
  0.0501544103026390  7.2043180465698242 29.8482589721679688
  7.5698900222778320  4.8430767059326172 30.2047805786132812
  6.8590469360351562  0.0321184433996677 30.2047805786132812
  2.7956275939941406  4.7642264366149902 30.2448234558105469
  2.0140173435211182  9.5751848220825195 30.2448234558105469
  4.8299388885498047  7.2110753059387207 30.6433792114257812
  9.5989990234375000  2.4001162052154541 30.6433792114257812
  7.3888249397277832  7.1378955841064453 32.3190612792968750
  7.0401139259338379  2.3269360065460205 32.3190650939941406
  0.1782216280698776  4.9236173629760742 32.5752372741699219
  9.4283266067504883  9.5352401733398438 32.6235275268554688
  4.6314239501953125  0.1126582249999046 32.5752372741699219
  5.0006132125854492  4.7242798805236816 32.6235237121582031
  2.5653021335601807  2.4888672828674316 32.3159065246582031
  2.2443428039550781  7.2998251914978027 32.3159065246582031
  6.1334099769592285  6.1857438087463379 17.4560127258300781
  8.2955284118652344  1.3747856616973877 17.4560108184814453
  1.3161277770996094  3.4291322231292725 17.4360313415527344
  3.4935176372528076  8.2400913238525391 17.4360313415527344
  5.8761940002441406  1.3400295972824097 18.8698329925537109
  8.5527429580688477  6.1509895324707031 18.8698348999023438
  1.1086670160293579  8.3213090896606445 18.9237232208251953
  3.7009787559509277  3.5103504657745361 18.9237232208251953
  6.3100938796997070  3.8644163608551025 19.4920845031738281
  8.1188449859619141  8.6753759384155273 19.4920845031738281
  3.2979738712310791  0.9251675009727478 19.4623851776123047
  1.5116717815399170  5.7361264228820801 19.4623851776123047
  5.6260704994201660  8.2923259735107422 19.5691680908203125
  8.8028688430786133  3.4813663959503174 19.5691680908203125
  0.8261399865150452  1.3583692312240601 19.6144638061523438
  3.9835057258605957  6.1693286895751953 19.6144638061523438
  8.8572225570678711  6.0150499343872070 21.5732765197753906
  5.5717148780822754  1.2040915489196777 21.5732765197753906
  3.9555633068084717  3.5257744789123535 21.6071758270263672
  0.8540828824043274  8.3367338180541992 21.6071758270263672
  6.2651476860046387  5.6419320106506348 21.7066001892089844
  8.1637907028198242  0.8309732675552368 21.7066001892089844
  3.4490013122558594  8.8186359405517578 21.8450012207031250
  1.3606445789337158  4.0076766014099121 21.8450031280517578
  8.3022708892822266  3.3820145130157471 22.1948280334472656
  6.1266679763793945  8.1929731369018555 22.1948261260986328
  1.1896517276763916  1.3680177927017212 22.2577819824218750
  3.6199948787689209  6.1789770126342773 22.2577800750732422
  5.9728851318359375  3.4115896224975586 23.8017253875732422
  8.4560527801513672  8.2225484848022461 23.8017253875732422
  3.4932122230529785  1.4283298254013062 23.9117202758789062
  1.3164335489273071  6.2392892837524414 23.9117183685302734
  8.2634677886962891  5.6149559020996094 24.2153415679931641
  6.1654696464538574  0.8039966821670532 24.2153434753417969
  3.3546490669250488  3.9862954616546631 24.3197288513183594
  1.4549973011016846  8.7972536087036133 24.3197288513183594
  8.7634449005126953  1.2499595880508423 24.3925189971923828
  5.6654930114746094  6.0609188079833984 24.3925189971923828
  4.0293350219726562  8.3998384475708008 24.4596042633056641
  0.7803115844726562  3.5888793468475342 24.4596042633056641
  5.5899562835693359  3.5888793468475342 26.4150009155273438
  8.8389816284179688  8.3998384475708008 26.4150009155273438
  0.8558467626571655  6.0609178543090820 26.4820861816406250
  3.9537997245788574  1.2499591112136841 26.4820880889892578
  8.1642923355102539  3.9862985610961914 26.5548763275146484
  6.2646460533142090  8.7972583770751953 26.5548763275146484
  3.4538199901580811  5.6149549484252930 26.6592636108398438
  1.3558267354965210  0.8039962053298950 26.6592655181884766
  6.1260786056518555  6.2392878532409668 26.9628868103027344
  8.3028593063354492  1.4283288717269897 26.9628887176513672
  1.1632391214370728  3.4115879535675049 27.0728816986083984
  3.6464071273803711  8.2225465774536133 27.0728816986083984
  5.9992976188659668  1.3680204153060913 28.6168251037597656
  8.4296407699584961  6.1789789199829102 28.6168251037597656
  1.3170218467712402  8.1929731369018555 28.6797790527343750
  3.4926238059997559  3.3820145130157471 28.6797790527343750
  6.1702899932861328  4.0076799392700195 29.0296058654785156
  8.2586479187011719  8.8186388015747070 29.0296039581298828
  3.3541436195373535  0.8309758901596069 29.1680068969726562
  1.4555017948150635  5.6419348716735840 29.1680049896240234
  5.6637287139892578  8.3367404937744141 29.2674312591552734
  8.7652091979980469  3.5257809162139893 29.2674312591552734
  0.7620677947998047  1.2040905952453613 29.3013324737548828
  4.0475778579711914  6.0150499343872070 29.3013324737548828
  8.7931509017944336  6.1693253517150879 31.2601470947265625
  5.6357870101928711  1.3583674430847168 31.2601470947265625
  3.9932215213775635  3.4813687801361084 31.3054428100585938
  0.8164231777191162  8.2923278808593750 31.3054409027099609
  6.3213119506835938  5.7361240386962891 31.4122238159179688
  8.1076269149780273  0.9251644611358643 31.4122238159179688
  3.3092083930969238  8.6753787994384766 31.3825283050537109
  1.5004371404647827  3.8644206523895264 31.3825283050537109
  8.5106287002563477  3.5103509426116943 31.9508838653564453
  5.9183092117309570  8.3213100433349609 31.9508838653564453
  1.0665442943572998  1.3400347232818604 32.0047760009765625
  3.7431020736694336  6.1509933471679688 32.0047760009765625
  6.1257743835449219  3.4291350841522217 33.4385719299316406
  8.3031644821166992  8.2400932312011719 33.4385719299316406
  3.4858853816986084  1.3747835159301758 33.4185905456542969
  1.3237609863281250  6.1857428550720215 33.4185905456542969
