Cu O 
 1.0000000000000000
     9.3401937484741211    0.0000000000000000    0.0000000000000000
     0.0000000000000000    9.3401937484741211    0.0000000000000000
     0.0000000000000000    0.0000000000000000   46.7009696960449219
 Cu  O  
  56  88
Cartesian
  0.0002800190122798  2.3352024555206299 17.0277061462402344
  4.6700472831726074  7.0053944587707520 17.0281143188476562
  6.7491197586059570  4.4508876800537109 17.3645362854003906
  2.5908832550048828  0.2193469852209091 17.3645839691162109
  2.0793719291687012  4.8893899917602539 17.3648262023925781
  7.2613701820373535  9.1209945678710938 17.3645763397216797
  4.6701326370239258  2.3349921703338623 17.6176605224609375
 -0.0000541731242265  7.0050411224365234 17.6176548004150391
  2.3365604877471924  2.3265004158020020 19.5975742340087891
  4.2764687538146973  4.6663908958435059 19.6104373931884766
  0.3935742080211639  9.3364448547363281 19.6105480194091797
  8.9462890625000000  4.6740026473999023 19.6106739044189453
  2.3336002826690674  6.9965481758117676 19.5975646972656250
  7.0036692619323730  2.3436715602874756 19.5974369049072266
  5.0639781951904297  0.0037960417103022 19.6103935241699219
  7.0066480636596680  7.0137314796447754 19.5976676940917969
  4.6702094078063965  7.0053544044494629 21.6117458343505859
  9.3399991989135742  2.3350527286529541 21.6117630004882812
  7.0237779617309570  0.3002887368202209 21.9504222869873047
  2.3165533542633057  4.3696732521057129 21.9505329132080078
  2.3535501956939697  9.0395727157592773 21.9503421783447266
  6.9863157272338867  4.9704174995422363 21.9505119323730469
  9.3401880264282227  7.0049433708190918 22.2701778411865234
  4.6702141761779785  2.3349390029907227 22.2700119018554688
  4.3759984970092773  0.0001993197365664 24.2841625213623047
  7.0050044059753418  2.3347809314727783 24.2842159271240234
  2.3347954750061035  7.0054850578308105 24.2841987609863281
  0.2940039932727814  4.6700544357299805 24.2844944000244141
  2.3351552486419678  2.3352484703063965 24.2842216491699219
  7.0053186416625977  7.0049390792846680 24.2841892242431641
  9.0458517074584961  0.0000258723375737 24.2844123840332031
  4.9645385742187500  4.6699967384338379 24.2842407226562500
  0.0001733539975248  2.3353588581085205 26.2983169555664062
  4.6703429222106934  7.0051808357238770 26.2981815338134766
  6.9859781265258789  4.3692955970764160 26.6184005737304688
  2.3541004657745361  0.3010382950305939 26.6185646057128906
  2.3162353038787842  4.9710845947265625 26.6183471679687500
  7.0244402885437012  9.0394401550292969 26.6183261871337891
  4.6702623367309570  2.3351271152496338 26.9573364257812500
  9.3401679992675781  7.0049118995666504 26.9573688507080078
  2.3332209587097168  2.3432974815368652 28.9714622497558594
  4.2757940292358398  4.6738348007202148 28.9583644866943359
  0.3942314684391022  0.0034427021164447 28.9582099914550781
  8.9456262588500977  4.6662750244140625 28.9581336975097656
  2.3366692066192627  7.0134634971618652 28.9713802337646484
  7.0070166587829590  2.3265459537506104 28.9712829589843750
  5.0644474029541016  9.3364877700805664 28.9582386016845703
  7.0034837722778320  6.9968314170837402 28.9713859558105469
  4.6700487136840820  7.0052146911621094 30.9519023895263672
  9.3400754928588867  2.3351624011993408 30.9518775939941406
  7.2618322372436523  0.2195334136486053 31.2045001983642578
  2.0784497261047363  4.4502739906311035 31.2044544219970703
  2.5916864871978760  9.1206865310668945 31.2041473388671875
  6.7483048439025879  4.8897490501403809 31.2044410705566406
  0.0001567284489283  7.0050997734069824 31.5408344268798828
  4.6699781417846680  2.3348186016082764 31.5414505004882812
  5.7128124237060547  5.6509990692138672 16.4892978668212891
  1.0425275564193726  3.6889383792877197 16.4891910552978516
  3.6276996135711670  8.3589591979980469 16.4891166687011719
  8.2974977493286133  0.9806838631629944 16.4891109466552734
  3.6859025955200195  1.3667025566101074 16.3870468139648438
  0.9844380617141724  6.0367660522460938 16.3870372772216797
  8.3560113906860352  7.9736404418945312 16.3871517181396484
  5.6544494628906250  3.3033244609832764 16.3870086669921875
  3.3473429679870605  6.1036443710327148 18.0979232788085938
  8.0174493789672852  3.2365655899047852 18.0979480743408203
  1.3229876756668091  1.4335674047470093 18.0978927612304688
  5.9930787086486816  7.9064636230468750 18.0981922149658203
  1.6145104169845581  8.3568506240844727 18.4122180938720703
  6.2846474647521973  0.9832336306571960 18.4118576049804688
  7.7254528999328613  5.6536698341369629 18.4124507904052734
  3.0555815696716309  3.6867437362670898 18.4118690490722656
  5.5231003761291504  3.4554038047790527 18.9193344116210938
  8.4867315292358398  8.1255435943603516 18.9194469451904297
  3.8171882629394531  1.2145750522613525 18.9194412231445312
  0.8530840277671814  5.8846392631530762 18.9192638397216797
  3.7549457550048828  8.1720371246337891 20.3553638458251953
  5.5855560302734375  5.8387155532836914 20.3552150726318359
  0.9151095151901245  3.5020847320556641 20.3550739288330078
  8.4249639511108398  1.1684737205505371 20.3553256988525391
  3.0952141284942627  5.6537413597106934 20.7895298004150391
  1.5747942924499512  0.9835196137428284 20.7896938323974609
  6.2452092170715332  8.3565464019775391 20.7894477844238281
  7.7651152610778809  3.6866314411163330 20.7898197174072266
  5.8490738868713379  1.5184508562088013 21.0049076080322266
  3.4914572238922119  3.1514596939086914 21.0048885345458984
  1.1784563064575195  7.8213558197021484 21.0049610137939453
  8.1611623764038086  6.1889381408691406 21.0048904418945312
  1.1234416961669922  3.1425797939300537 22.8996906280517578
  8.2163639068603516  1.5276087522506714 22.9003200531005859
  3.5464982986450195  7.8127412796020508 22.9000549316406250
  5.7941050529479980  6.1975426673889160 22.9001483917236328
  1.5033842325210571  5.6496839523315430 23.0781707763671875
  3.1665198802947998  0.9793024063110352 23.0782279968261719
  7.8368840217590332  8.3605537414550781 23.0783081054687500
  6.1738162040710449  3.6905002593994141 23.0782947540283203
  3.6825976371765137  3.5322785377502441 23.4936504364013672
  8.3521661758422852  5.8081073760986328 23.4934806823730469
  5.6582350730895996  1.1377589702606201 23.4935226440429688
  0.9878655076026917  8.2023229598999023 23.4936695098876953
  8.3519144058227539  3.5323116779327393 25.0759048461914062
  0.9878160953521729  1.1375479698181152 25.0761375427246094
  5.6582574844360352  8.2022218704223633 25.0759963989257812
  3.6821579933166504  5.8082065582275391 25.0755443572998047
  6.1732025146484375  5.6499285697937012 25.4908752441406250
  1.5032323598861694  3.6906256675720215 25.4910068511962891
  3.1668891906738281  8.3603448867797852 25.4911193847656250
  7.8368620872497559  0.9800094962120056 25.4909591674804688
  3.5465106964111328  1.5271445512771606 25.6691532135009766
  1.1238290071487427  6.1971478462219238 25.6688652038574219
  8.2159366607666016  7.8130879402160645 25.6687412261962891
  5.7941479682922363  3.1429069042205811 25.6685543060302734
  3.4920661449432373  6.1877727508544922 27.5645179748535156
  8.1616268157958984  3.1525306701660156 27.5646400451660156
  1.1782243251800537  1.5179331302642822 27.5647640228271484
  5.8486051559448242  7.8223996162414551 27.5647125244140625
  1.5745412111282349  8.3562364578247070 27.7801322937011719
  6.2446641921997070  0.9838610291481018 27.7797718048095703
  7.7651319503784180  5.6541457176208496 27.7802448272705078
  3.0952684879302979  3.6859843730926514 27.7801094055175781
  5.5859570503234863  3.5020394325256348 28.2130184173583984
  8.4240827560424805  8.1717481613159180 28.2129802703857422
  3.7541539669036865  1.1677286624908447 28.2130222320556641
  0.9158002138137817  5.8379745483398438 28.2131347656250000
  8.4865055084228516  1.2142022848129272 29.6501941680908203
  3.8162510395050049  8.1260080337524414 29.6501293182373047
  5.5240802764892578  5.8846917152404785 29.6502304077148438
  0.8535584807395935  3.4557435512542725 29.6503028869628906
  3.0565671920776367  5.6544833183288574 30.1567230224609375
  1.6138336658477783  0.9844298958778381 30.1566734313964844
  6.2838397026062012  8.3556432723999023 30.1563320159912109
  7.7265119552612305  3.6857185363769531 30.1567440032958984
  3.3477585315704346  3.2364006042480469 30.4699459075927734
  5.9924521446228027  1.4334733486175537 30.4698505401611328
  1.3225063085556030  7.9067420959472656 30.4701099395751953
  8.0177545547485352  6.1038956642150879 30.4698505401611328
  0.9839705824851990  3.3037741184234619 32.1825904846191406
  8.3560867309570312  1.3664032220840454 32.1823616027832031
  3.6858265399932861  7.9738078117370605 32.1822624206542969
  5.6538753509521484  6.0363588333129883 32.1824378967285156
  1.0419350862503052  5.6515402793884277 32.0798912048339844
  3.6280641555786133  0.9811252951622009 32.0801544189453125
  8.2979898452758789  8.3591423034667969 32.0800018310546875
  5.7121539115905762  3.6890413761138916 32.0799827575683594
