Ni O 
 1.0000000000000000
     8.1986503601074219    0.0000000000000000    1.0289880037307739
     4.0591487884521484    9.4208240509033203    0.8346049785614014
     0.0000000000000000    0.0000000000000000   33.1766052246093750
 Ni  O  
  36  44
Cartesian
  5.6071195602416992  5.8644280433654785 21.6687698364257812
  1.4115767478942871  3.0258834362030029 21.9274730682373047
  9.8083086013793945  8.8131895065307617 21.3831462860107422
  7.5513110160827637  7.6835274696350098 22.7992401123046875
  3.6824259757995605  4.0555000305175781 20.4659156799316406
  7.6414237022399902  1.2331365346908569 21.7396202087402344
  3.4473419189453125  7.6806588172912598 22.2738742828369141
  7.7719988822937012  4.0560646057128906 20.9787673950195312
  3.6203348636627197  1.2340251207351685 21.2351589202880859
  5.9532160758972168  5.1122336387634277 18.9186191558837891
  1.7540941238403320  2.2317903041839600 19.1978492736816406
 10.1556043624877930  7.9979295730590820 18.6146736145019531
  7.8682165145874023  6.9232497215270996 20.1264209747314453
  4.0352201461791992  3.2732715606689453 17.6651039123535156
  8.0154256820678711  0.3966962099075317 18.9804630279541016
  3.7993590831756592  6.9233570098876953 19.6156940460205078
  8.1219387054443359  3.2731246948242188 18.1780929565429688
  3.9398510456085205  0.3965101540088654 18.4689102172851562
  6.3041257858276367  4.3090887069702148 16.1201725006103516
  2.1020882129669189  1.4225083589553833 16.4243221282958984
 10.5036096572875977  7.1904139518737793 15.8444271087646484
  8.2232656478881836  6.1498889923095703 17.3754310607910156
  4.3922777175903320  2.4996874332427979 14.9089336395263672
  4.2393751144409180  9.0233812332153320 16.0632648468017578
  4.1351079940795898  6.1498489379882812 16.8619041442871094
  8.4560394287109375  2.5020217895507812 15.4284410476684570
  8.3190422058105469  9.0250902175903320 16.5712203979492188
  6.6455936431884766  3.5281167030334473 13.3523340225219727
  2.4551942348480225  0.6165338754653931 13.6548290252685547
 10.8467578887939453  6.3954529762268066 13.1024961471557617
  8.5750188827514648  5.3734793663024902 14.5846090316772461
  4.7196612358093262  1.7234197854995728 12.2010927200317383
  4.6122279167175293  8.1863536834716797 13.3025302886962891
  4.4868597984313965  5.3616671562194824 14.0652780532836914
  8.8102998733520508  1.7490544319152832 12.7569313049316406
  8.6414136886596680  8.1930980682373047 13.8069801330566406
  9.8286962509155273  3.8365066051483154 21.2156028747558594
  5.6208343505859375  0.8517686128616333 21.5649471282958984
  5.7458310127258301  4.2523288726806641 20.5710391998291016
  1.5410128831863403  1.3480619192123413 20.8979530334472656
  7.4968581199645996  5.9538741111755371 21.9263000488281250
  3.2412345409393311  2.9840674400329590 22.1496791839599609
 11.6892471313476562  8.7608327865600586 21.6522216796875000
  7.7824382781982422  2.9848465919494629 22.7210369110107422
  7.9183421134948730  8.7626008987426758 21.1774463653564453
  3.7151412963867188  5.9547891616821289 21.4519901275634766
  5.8349914550781250  6.7302937507629395 19.8635215759277344
  1.9687049388885498  3.0234711170196533 17.4915924072265625
  5.9775004386901855  0.1609028726816177 18.7247943878173828
  9.9428682327270508  7.1694808006286621 20.3067741394042969
  6.0866298675537109  3.5199339389801025 17.8561305999755859
  1.8855271339416504  0.6460128426551819 18.1550922393798828
  7.8190197944641113  5.0988392829895020 19.1351432800292969
  3.6108188629150391  2.2185618877410889 19.4271278381347656
  3.8170411586761475  7.9857816696166992 17.8071250915527344
  8.0976409912109375  2.2184648513793945 19.9903488159179688
  8.2981090545654297  7.9858598709106445 18.3697929382324219
  4.0920872688293457  5.0986633300781250 18.6672782897949219
  6.1705856323242188  5.9018726348876953 17.1883201599121094
  2.3136119842529297  2.2495551109313965 14.7365827560424805
 10.3720312118530273  8.7762098312377930 16.8897399902343750
 10.2886781692504883  6.3978972434997559 17.5530147552490234
  6.4224085807800293  2.6957015991210938 15.1821603775024414
  6.2789325714111328  9.2636146545410156 16.3174552917480469
  8.1661605834960938  4.3223276138305664 16.3756828308105469
  3.9581148624420166  1.4354408979415894 16.6779098510742188
  4.1594562530517578  7.2059602737426758 15.0541238784790039
  8.4405155181884766  1.4351217746734619 17.2402496337890625
  8.6458139419555664  7.2035646438598633 15.6168603897094727
  4.4375419616699219  4.3228678703308105 15.9084177017211914
  6.5113048553466797  5.1758260726928711 14.4794282913208008
 10.7164039611816406  8.0744047164916992 14.1451349258422852
  2.4282627105712891  5.5829143524169922 13.8273267745971680
  6.6329627037048340  8.5678644180297852 13.4785585403442383
  8.5592002868652344  3.4293143749237061 13.5707073211669922
  4.3336787223815918  0.6517511606216431 13.8703498840332031
  4.4800491333007812  6.4362506866455078 12.3229484558105469
  0.5686647295951843  0.6696666479110718 13.3726224899291992
  9.0116415023803711  6.4368009567260742 12.8925247192382812
  4.7526402473449707  3.4784080982208252 13.1219129562377930
