Cu O 
 1.0000000000000000
     9.3401937484741211    0.0000000000000000    0.0000000000000000
     0.0000000000000000    9.3401937484741211    0.0000000000000000
     0.0000000000000000    0.0000000000000000   46.7009696960449219
 Cu  O  
  56  80
Cartesian
  0.0008522926946171  2.3362100124359131 17.8819465637207031
  4.6709761619567871  7.0055384635925293 17.8800086975097656
  6.6068148612976074  4.4625220298767090 17.9091224670410156
  2.7328474521636963  0.2084254920482635 17.9097957611083984
  1.9364421367645264  4.8775472640991211 17.9103813171386719
  7.4037742614746094  9.1313581466674805 17.9110736846923828
  4.6700711250305176  2.3347806930541992 18.0410766601562500
  9.3400783538818359  7.0048685073852539 18.0401077270507812
  2.3415811061859131  2.3266077041625977 20.0636711120605469
  4.2396755218505859  4.6365904808044434 20.1207675933837891
  0.4310761094093323  9.3067445755004883 20.1201686859130859
  8.9085311889648438  4.7035222053527832 20.1197052001953125
  2.3310275077819824  6.9981927871704102 20.0634822845458984
  6.9987349510192871  2.3435218334197998 20.0639324188232422
  5.1015954017639160  0.0338177606463432 20.1207160949707031
  7.0102334022521973  7.0124063491821289 20.0638465881347656
  4.6700801849365234  7.0049510002136230 22.0878143310546875
 -0.0001313231332460  2.3353352546691895 22.0872516632080078
  7.0457153320312500  0.3016369044780731 22.4148616790771484
  2.2946596145629883  4.3681077957153320 22.4149951934814453
  2.3761501312255859  9.0377426147460938 22.4145393371582031
  6.9635868072509766  4.9724054336547852 22.4144287109375000
 -0.0003894860856235  7.0047950744628906 22.7506084442138672
  4.6701440811157227  2.3348615169525146 22.7503013610839844
  4.3892259597778320 -0.0003401698777452 24.7517700195312500
  7.0053839683532715  2.3352169990539551 24.7518634796142578
  2.3356359004974365  7.0055756568908691 24.7522563934326172
  0.2812227010726929  4.6697769165039062 24.7522373199462891
  2.3347730636596680  2.3346171379089355 24.7518005371093750
  7.0044999122619629  7.0050873756408691 24.7526092529296875
  9.0588865280151367  0.0002930018818006 24.7521266937255859
  4.9509887695312500  4.6701683998107910 24.7520503997802734
  0.0000447395286756  2.3349478244781494 26.7522487640380859
  4.6699647903442383  7.0054101943969727 26.7530536651611328
  6.9644417762756348  4.3682494163513184 27.0879802703857422
  2.3751571178436279  0.3018169701099396 27.0879802703857422
  2.2942852973937988  4.9717822074890137 27.0883293151855469
  7.0459790229797363  9.0384807586669922 27.0879840850830078
  4.6698074340820312  2.3350751399993896 27.4152469635009766
 -0.0000882648309926  7.0050697326660156 27.4154605865478516
  2.3294677734375000  2.3425698280334473 29.4397773742675781
  4.2397222518920898  4.7029638290405273 29.3831596374511719
  0.4299975037574768  0.0330680236220360 29.3825645446777344
  8.9101076126098633  4.6368408203125000 29.3827972412109375
  2.3404643535614014  7.0127940177917480 29.4391899108886719
  7.0112318992614746  2.3273491859436035 29.4394588470458984
  5.1007685661315918  9.3073844909667969 29.3837203979492188
  7.0000343322753906  6.9975500106811523 29.4389495849609375
  4.6704521179199219  7.0053925514221191 31.4629516601562500
  0.0004227371828165  2.3350245952606201 31.4627361297607422
  7.4036378860473633  0.2089497596025467 31.5924053192138672
  1.9365054368972778  4.4617142677307129 31.5931186676025391
  2.7331280708312988  9.1312627792358398 31.5928611755371094
  6.6067094802856445  4.8779749870300293 31.5927238464355469
  9.3397493362426758  7.0054078102111816 31.6210212707519531
  4.6712422370910645  2.3365793228149414 31.6223926544189453
  3.7984898090362549  1.2033317089080811 16.8676357269287109
  0.8683012127876282  5.8710517883300781 16.8671264648437500
  8.4713859558105469  8.1391563415527344 16.8670444488525391
  5.5401768684387207  3.4668381214141846 16.8671512603759766
  3.2886776924133301  6.1475443840026855 18.4953651428222656
  7.9575266838073730  3.1940121650695801 18.4955997467041016
  1.3830311298370361  1.4759927988052368 18.4946994781494141
  6.0519990921020508  7.8634924888610840 18.4958419799804688
  1.7028781175613403  8.3632373809814453 18.8778667449951172
  6.3731551170349121  0.9772225618362427 18.8788204193115234
  7.6377186775207520  5.6470861434936523 18.8783817291259766
  2.9683451652526855  3.6927840709686279 18.8792896270751953
  5.4784936904907227  3.4810698032379150 19.3460083007812500
  3.8624238967895508  1.1884057521820068 19.3461952209472656
  0.8087134361267090  5.8573393821716309 19.3439407348632812
  8.5314426422119141  8.1527452468872070 19.3440074920654297
  8.4609003067016602  1.1744602918624878 20.8144931793212891
  3.7912383079528809  8.1663255691528320 20.8155403137207031
  5.5492711067199707  5.8437571525573730 20.8154869079589844
  0.8790503144264221  3.4961819648742676 20.8148212432861328
  3.0619711875915527  5.6399087905883789 21.2317104339599609
  1.6079589128494263  0.9700254797935486 21.2328319549560547
  6.2784633636474609  8.3699703216552734 21.2323646545410156
  7.7323708534240723  3.7002141475677490 21.2327404022216797
  3.4763641357421875  3.1377048492431641 21.4748172760009766
  5.8639245033264160  1.5323959589004517 21.4750652313232422
  1.1918809413909912  7.8082561492919922 21.4741477966308594
  8.1480846405029297  6.2017006874084473 21.4736766815185547
  1.1161634922027588  3.1408982276916504 23.3735504150390625
  8.2240085601806641  1.5288461446762085 23.3734645843505859
  3.5534021854400635  7.8108272552490234 23.3733482360839844
  5.7864546775817871  6.1991724967956543 23.3731708526611328
  1.4846642017364502  5.6540989875793457 23.5357608795166016
  3.1850843429565430  0.9840519428253174 23.5357055664062500
  7.8552517890930176  8.3561162948608398 23.5357646942138672
  6.1549525260925293  3.6858394145965576 23.5356025695800781
  3.6665339469909668  3.5414702892303467 23.9602165222167969
  8.3370103836059570  5.7989611625671387 23.9598655700683594
  5.6733694076538086  1.1287418603897095 23.9603080749511719
  1.0027943849563599  8.2109956741333008 23.9604740142822266
  8.3368606567382812  3.5404961109161377 25.5430736541748047
  1.0028775930404663  1.1296254396438599 25.5429267883300781
  5.6733508110046387  8.2103195190429688 25.5421485900878906
  3.6665647029876709  5.7998986244201660 25.5423240661621094
  6.1557526588439941  5.6534857749938965 25.9662818908691406
  1.4848480224609375  3.6867198944091797 25.9666213989257812
  3.1844277381896973  8.3569021224975586 25.9665699005126953
  7.8551745414733887  0.9834266901016235 25.9664707183837891
  3.5532851219177246  1.5300740003585815 26.1291961669921875
  1.1162369251251221  6.1998629570007324 26.1294555664062500
  8.2238950729370117  7.8105502128601074 26.1294326782226562
  5.7864441871643066  3.1402711868286133 26.1291160583496094
  3.4776189327239990  6.2024888992309570 28.0282306671142578
  8.1470355987548828  3.1375496387481689 28.0280437469482422
  1.1931825876235962  1.5329167842864990 28.0278015136718750
  5.8627710342407227  7.8075351715087891 28.0279674530029297
  1.6083219051361084  8.3706483840942383 28.2704734802246094
  6.2786593437194824  0.9698171019554138 28.2700195312500000
  7.7316632270812988  5.6392498016357422 28.2703304290771484
  3.0613265037536621  3.7003905773162842 28.2706222534179688
  5.5484166145324707  3.4963974952697754 28.6886768341064453
  8.4617710113525391  8.1661205291748047 28.6886653900146484
  3.7911128997802734  1.1743738651275635 28.6890678405761719
  0.8785451650619507  5.8436155319213867 28.6880435943603516
  8.5320587158203125  1.1876498460769653 30.1576995849609375
  3.8614552021026611  8.1529769897460938 30.1583232879638672
  5.4783382415771484  5.8578772544860840 30.1579742431640625
  0.8085609078407288  3.4817380905151367 30.1571846008300781
  2.9668316841125488  5.6471090316772461 30.6241436004638672
  1.7030776739120483  0.9781268835067749 30.6248569488525391
  6.3734240531921387  8.3629989624023438 30.6244926452636719
  7.6373400688171387  3.6922042369842529 30.6238174438476562
  3.2884669303894043  3.1939868927001953 31.0090007781982422
  1.3819354772567749  7.8632283210754395 31.0089607238769531
  6.0519175529479980  1.4764573574066162 31.0079059600830078
  7.9582266807556152  6.1465344429016113 31.0078144073486328
  0.8707429766654968  3.4668493270874023 32.6356964111328125
  8.4688711166381836  1.2034677267074585 32.6355361938476562
  3.7999172210693359  8.1378774642944336 32.6360626220703125
  5.5395927429199219  5.8724055290222168 32.6355476379394531
