Cu O 
 1.0000000000000000
     9.3401937484741211    0.0000000000000000    0.0000000000000000
     0.0000000000000000    9.3401937484741211    0.0000000000000000
     0.0000000000000000    0.0000000000000000   46.7009696960449219
 Cu  O  
  56  80
Cartesian
 -0.0000073787532529  2.3350443840026855 17.5116424560546875
  4.6700220108032227  7.0050606727600098 17.5056629180908203
  6.9425764083862305  4.2971072196960449 17.7608833312988281
  2.3975231647491455  0.3728314042091370 17.7609024047851562
  2.2725830078125000  5.0433902740478516 17.7606430053710938
  7.0681104660034180  8.9648818969726562 17.7629985809326172
  4.6701960563659668  2.3351120948791504 18.0285472869873047
  0.0007128436118364  7.0046339035034180 18.0280780792236328
  2.3361623287200928  2.3350007534027100 20.0802307128906250
  4.3546671867370605  4.6653332710266113 20.0837669372558594
  0.3143821358680725 -0.0051168384961784 20.0826129913330078
  9.0260896682739258  4.6750407218933105 20.0827236175537109
  2.3322246074676514  7.0061383247375488 20.0778751373291016
  7.0044207572937012  2.3349759578704834 20.0804882049560547
  4.9854674339294434  0.0048116943798959 20.0835800170898438
  7.0080990791320801  7.0036025047302246 20.0784225463867188
  4.6703681945800781  7.0045933723449707 22.1015014648437500
 -0.0002519050322007  2.3346617221832275 22.1032772064208984
  7.0029144287109375  0.3156312108039856 22.4158897399902344
  2.3376772403717041  4.3544030189514160 22.4156894683837891
  2.3309667110443115  9.0240449905395508 22.4140644073486328
  7.0086941719055176  4.9855952262878418 22.4148139953613281
 -0.0007107887649909  7.0048327445983887 22.7297592163085938
  4.6700911521911621  2.3348689079284668 22.7325458526611328
  4.3531427383422852  0.0003301758551970 24.7505092620849609
  7.0044226646423340  2.3336651325225830 24.7497692108154297
  2.3334007263183594  7.0054769515991211 24.7496051788330078
  0.3162951171398163  4.6709022521972656 24.7502822875976562
  2.3351349830627441  2.3359303474426270 24.7506065368652344
  7.0068502426147461  7.0040202140808105 24.7487277984619141
  9.0235309600830078 -0.0013234120560810 24.7507324218750000
  4.9871172904968262  4.6695680618286133 24.7498950958251953
  0.0005404236144386  2.3339486122131348 26.7688350677490234
  4.6703777313232422  7.0049133300781250 26.7681751251220703
  7.0050511360168457  4.3517556190490723 27.0869178771972656
  2.3341720104217529  0.3171232044696808 27.0881309509277344
  2.3361859321594238  4.9872794151306152 27.0878257751464844
  7.0048856735229492  9.0223579406738281 27.0873451232910156
  4.6690888404846191  2.3344898223876953 27.4018630981445312
 -0.0000364267580153  7.0054211616516113 27.4023532867431641
  2.3318796157836914  2.3350181579589844 29.4226837158203125
  4.3540449142456055  4.6751389503479004 29.4193134307861328
  0.3160504102706909  0.0054755951277912 29.4193096160888672
  9.0244169235229492  4.6646938323974609 29.4200363159179688
  2.3388426303863525  7.0061960220336914 29.4239025115966797
  7.0089492797851562  2.3335347175598145 29.4240169525146484
  4.9852280616760254 -0.0053893853910267 29.4193916320800781
  7.0004572868347168  7.0042991638183594 29.4241275787353516
  4.6694974899291992  7.0054011344909668 31.4713859558105469
  0.0002261260960950  2.3352022171020508 31.4710445404052734
  7.0698966979980469  0.3735429346561432 31.7408008575439453
  2.2705519199371338  4.2955465316772461 31.7394485473632812
  2.3991057872772217  8.9671068191528320 31.7418060302734375
  6.9401097297668457  5.0445013046264648 31.7407608032226562
  0.0000993796638795  7.0052738189697266 31.9827690124511719
  4.6699376106262207  2.3354735374450684 31.9845504760742188
  3.5045766830444336  1.4842846393585205 16.8271846771240234
  1.1670422554016113  6.1536245346069336 16.8271408081054688
  8.1724843978881836  7.8574657440185547 16.8273429870605469
  5.8356423377990723  3.1857995986938477 16.8271560668945312
  3.5481488704681396  6.2116284370422363 18.6603736877441406
  8.2171669006347656  3.1245028972625732 18.6614780426025391
  1.1233663558959961  1.5461051464080811 18.6617298126220703
  5.7936792373657227  7.7993159294128418 18.6614933013916016
  1.5437200069427490  8.3710536956787109 18.8664913177490234
  6.2122302055358887  0.9714618921279907 18.8684120178222656
  7.7959079742431641  5.6403288841247559 18.8677177429199219
  3.1278266906738281  3.6972608566284180 18.8695278167724609
  5.6269731521606445  3.5310626029968262 19.2780132293701172
  3.7127482891082764  1.1393183469772339 19.2781181335449219
  0.9550734758377075  5.8078136444091797 19.2797584533691406
  8.3820724487304688  8.2018013000488281 19.2782020568847656
  8.3748693466186523  1.1374464035034180 20.8794097900390625
  3.7093310356140137  8.2047233581542969 20.8837757110595703
  5.6313428878784180  5.8073558807373047 20.8815479278564453
  0.9656257629394531  3.5328941345214844 20.8795623779296875
  3.1374623775482178  5.6384196281433105 21.2771053314208984
  1.5376493930816650  0.9704483747482300 21.2746963500976562
  6.2031602859497070  8.3704099655151367 21.2762107849121094
  7.8034100532531738  3.6999769210815430 21.2734909057617188
  3.5361490249633789  3.1333000659942627 21.4518795013427734
  5.8039078712463379  1.5364546775817871 21.4524879455566406
  1.1371682882308960  7.8038558959960938 21.4562320709228516
  8.2031898498535156  6.2075953483581543 21.4539508819580078
  1.1368445158004761  3.1347761154174805 23.3857574462890625
  8.2040033340454102  1.5352982282638550 23.3853435516357422
  3.5344614982604980  7.8051400184631348 23.3859367370605469
  5.8032665252685547  6.2064194679260254 23.3836460113525391
  1.5353329181671143  5.6395878791809082 23.5593643188476562
  3.1383383274078369  0.9693824052810669 23.5545463562011719
  7.8057074546813965  8.3734283447265625 23.5578002929687500
  6.2020740509033203  3.7001569271087646 23.5549430847167969
  3.7036256790161133  3.5310394763946533 23.9504966735839844
  8.3744096755981445  5.8053798675537109 23.9538726806640625
  5.6350216865539551  1.1380274295806885 23.9506320953369141
  0.9695881605148315  8.2043190002441406 23.9533786773681641
  8.3724546432495117  3.5352005958557129 25.5560302734375000
  0.9669417142868042  1.1366347074508667 25.5528221130371094
  5.6367807388305664  8.2041358947753906 25.5558452606201172
  3.7010293006896973  5.8088026046752930 25.5543346405029297
  6.2010493278503418  5.6389808654785156 25.9524898529052734
  1.5311957597732544  3.7010314464569092 25.9492359161376953
  3.1392049789428711  8.3680238723754883 25.9483127593994141
  7.8090476989746094  0.9681321978569031 25.9503784179687500
  3.5330731868743896  1.5329924821853638 26.1178054809570312
  1.1374477148056030  6.2037086486816406 26.1173954010009766
  8.2042236328125000  7.8079447746276855 26.1196060180664062
  5.8083376884460449  3.1382336616516113 26.1202163696289062
  3.5326578617095947  6.2053837776184082 28.0514125823974609
  8.1997127532958984  3.1365902423858643 28.0536098480224609
  1.1363327503204346  1.5359809398651123 28.0497570037841797
  5.8086786270141602  7.8054809570312500 28.0517368316650391
  1.5345351696014404  8.3661155700683594 28.2259654998779297
  6.2055015563964844  0.9740023612976074 28.2274169921875000
  7.8064708709716797  5.6428894996643066 28.2253589630126953
  3.1357486248016357  3.6993525028228760 28.2257289886474609
  5.6429982185363770  3.5309007167816162 28.6195373535156250
  8.3691759109497070  8.1995115280151367 28.6190052032470703
  3.7034261226654053  1.1376891136169434 28.6205997467041016
  0.9685889482498169  5.8095998764038086 28.6195125579833984
  8.3727149963378906  1.1423342227935791 30.2297840118408203
  3.7054569721221924  8.1998071670532227 30.2286739349365234
  5.6365561485290527  5.8104648590087891 30.2293395996093750
  0.9629343152046204  3.5317120552062988 30.2315597534179688
  3.1268219947814941  5.6464123725891113 30.6346969604492188
  1.5415894985198975  0.9762236475944519 30.6367702484130859
  6.2131896018981934  8.3634004592895508 30.6337547302246094
  7.7980523109436035  3.6912727355957031 30.6335449218750000
  3.5507395267486572  3.1248679161071777 30.8403186798095703
  1.1202461719512939  7.7928304672241211 30.8386268615722656
  5.7916278839111328  1.5472531318664551 30.8360538482666016
  8.2197589874267578  6.2163090705871582 30.8372135162353516
  1.1651703119277954  3.1838777065277100 32.6809082031250000
  8.1752586364746094  1.4865144491195679 32.6802520751953125
  3.5042164325714111  7.8546519279479980 32.6804237365722656
  5.8364367485046387  6.1553411483764648 32.6801567077636719
