Ti O 
 1.0000000000000000
     8.6315250396728516    0.0000000000000000   -2.3602750301361084
    -2.7022299766540527   11.3753890991210938   -4.2277588844299316
     0.0000000000000000    0.0000000000000000   33.9257545471191406
 Ti  O  
  60  30
Cartesian
  4.1231398582458496  1.3613177537918091 14.5135431289672852
  7.0009241104125977  1.3627126216888428 13.7264699935913086
  1.2444853782653809  1.3631460666656494 15.3011322021484375
  1.8904247283935547  5.9204759597778320 12.0067825317382812
  4.7678351402282715  5.9206991195678711 11.2209119796752930
 -0.9850456714630127  5.9205288887023926 12.7926254272460938
  3.0162928104400635  3.6523418426513672 10.4745178222656250
  5.8961110115051270  3.6533889770507812  9.6859073638916016
  0.1421312391757965  3.6503021717071533 11.2658777236938477
 -0.3398220241069794 10.4490432739257812  9.5006961822509766
  2.5337474346160889 10.4544754028320312  8.7093706130981445
  5.4136095046997070 10.4531278610229492  7.9233160018920898
  0.7950847744941711  8.2190227508544922  7.9749464988708496
  3.6665458679199219  8.2249135971069336  7.1938476562500000
  6.5368494987487793  8.2182874679565430  6.4047846794128418
  2.2723684310913086  3.1833841800689697 13.3961992263793945
  5.1475400924682617  3.1840670108795166 12.6103353500366211
 -0.6068819761276245  3.1831803321838379 14.1842880249023438
  0.0380891412496567  7.7426495552062988 10.8858051300048828
  2.9049017429351807  7.7437191009521484 10.0994558334350586
  5.8026118278503418  7.7442202568054199  9.3090076446533203
  1.1677175760269165  5.4733405113220215  9.3366231918334961
  4.0379309654235840  5.4871301651000977  8.5527601242065430
  6.9095849990844727  5.4736218452453613  7.7666826248168945
  3.3899867534637451  0.9218298792839050 11.8391380310058594
  6.2689366340637207  0.9236368536949158 11.0518045425415039
  0.5143466591835022  0.9228405952453613 12.6257371902465820
 -1.0768941640853882 10.0093688964843750 12.4629983901977539
  1.8013713359832764 10.0091390609741211 11.6808271408081055
  4.6783380508422852 10.0086231231689453 10.8920946121215820
  4.1104378700256348  1.3520989418029785 20.1712951660156250
  7.0120811462402344  1.3520826101303101 19.3782501220703125
  1.2448395490646362  1.3325322866439819 20.9522762298583984
  1.8923876285552979  5.9055757522583008 17.6611442565917969
  4.7668967247009277  5.9027185440063477 16.8751068115234375
 -0.9863342046737671  5.8994956016540527 18.4476757049560547
  3.0098490715026855  3.6402695178985596 16.1044025421142578
  5.8895554542541504  3.6402344703674316 15.3167562484741211
  0.1345186978578568  3.6393074989318848 16.8908386230468750
 -0.3271881937980652 10.4558210372924805 15.1728858947753906
  2.5423955917358398 10.4556941986083984 14.3880109786987305
  5.4112367630004883 10.4554615020751953 13.6032705307006836
  0.7780390977859497  8.1895332336425781 13.5914888381958008
  3.6575677394866943  8.1890344619750977 12.8094310760498047
  6.5331177711486816  8.1908206939697266 12.0209226608276367
  2.2659974098205566  3.1682960987091064 19.0246963500976562
  5.1402792930603027  3.1729943752288818 18.2348136901855469
 -0.6150998473167419  3.1671900749206543 19.8140888214111328
  0.0425077639520168  7.7437067031860352 16.5660896301269531
  2.9184017181396484  7.7490773200988770 15.7684402465820312
  5.8025527000427246  7.7446169853210449 14.9887447357177734
  1.1595270633697510  5.4614405632019043 14.9877109527587891
  4.0375757217407227  5.4600443840026855 14.1993570327758789
  6.9128494262695312  5.4599585533142090 13.4137201309204102
  3.3923494815826416  0.9030063748359680 17.4945316314697266
  6.2677445411682129  0.9032320380210876 16.7090244293212891
  0.5142495036125183  0.9028431177139282 18.2808876037597656
 -1.0883382558822632  9.9617490768432617 18.0724411010742188
  1.8507833480834961 10.0468072891235352 17.4227180480957031
  4.6817421913146973 10.0477666854858398 16.6489772796630859
  4.6341409683227539  2.2447772026062012 10.7203397750854492
  7.5103697776794434  2.2412164211273193  9.9317359924316406
  1.7561286687850952  2.2406430244445801 11.5058689117431641
  2.3989989757537842  6.7983279228210449  8.2127008438110352
  5.2819986343383789  6.7987132072448730  7.4242358207702637
  0.6433699131011963  4.5475020408630371 13.0899572372436523
  3.5210216045379639  4.5480442047119141 12.3033466339111328
  6.3973689079284668  4.5476679801940918 11.5175809860229492
  0.0013367283390835  0.0023605069145560 16.3972492218017578
  2.8776338100433350  0.0048150885850191 15.6096992492675781
  5.7563996315002441  0.0033224099315703 14.8230047225952148
 -1.5889866352081299  9.0906391143798828 10.5960493087768555
  1.2953419685363770  9.0918769836425781  9.8080873489379883
  4.1700758934020996  9.0946664810180664  9.0216007232666016
  4.6432824134826660  2.2821130752563477 16.4102745056152344
  7.5210003852844238  2.2816073894500732 15.6229009628295898
  1.7663360834121704  2.2813494205474854 17.1974067687988281
 -0.4691432416439056  6.8253555297851562 14.6775045394897461
  2.4089498519897461  6.8236198425292969 13.8910102844238281
  5.2852787971496582  6.8255233764648438 13.1034383773803711
  0.6529109477996826  4.5847425460815430 18.7809391021728516
  3.5315604209899902  4.5891432762145996 17.9953498840332031
  6.4081659317016602  4.5882353782653809 17.2098484039306641
  0.0022729958873242  0.0265991855412722 22.0646724700927734
  2.8846971988677979  0.0263530220836401 21.2768115997314453
 -1.5846118927001953  9.1148929595947266 16.2535896301269531
  1.2865099906921387  9.1125059127807617 15.4620380401611328
  4.1743845939636230  9.1132116317749023 14.6728725433349609
  4.4591312408447266 11.0122003555297852 18.5670185089111328
  3.0228903293609619 11.0122852325439453 18.9598941802978516
