Ti O 
 1.0000000000000000
     8.6315250396728516    0.0000000000000000   -2.3602750301361084
    -2.7022299766540527   11.3753890991210938   -4.2277588844299316
     0.0000000000000000    0.0000000000000000   33.9257545471191406
 Ti  O  
  60  30
Cartesian
  4.0907163619995117  1.4291340112686157 14.5334987640380859
  6.9654722213745117  1.4319537878036499 13.7488269805908203
  1.2185435295104980  1.4331599473953247 15.3293418884277344
  1.8679739236831665  5.9771566390991211 12.0615386962890625
  4.7337212562561035  5.9822955131530762 11.2488250732421875
 -1.0085668563842773  5.9729046821594238 12.8303556442260742
  3.0082373619079590  3.6199438571929932 10.6118278503417969
  5.9088239669799805  3.6166157722473145  9.8282823562622070
  0.1478152573108673  3.6133918762207031 11.4148769378662109
 -0.3535629808902740 10.5248098373413086  9.5575637817382812
  2.4998524188995361 10.5367755889892578  8.7455396652221680
  5.3906512260437012 10.5422582626342773  7.9574475288391113
  0.8377639651298523  8.2462949752807617  8.1655950546264648
  3.7014977931976318  8.1956520080566406  7.4389915466308594
  6.5317330360412598  8.2445278167724609  6.6076664924621582
  2.2259662151336670  3.1940977573394775 13.3680562973022461
  5.0999073982238770  3.1951546669006348 12.5696802139282227
 -0.6541067957878113  3.1942539215087891 14.1529235839843750
  0.0149826835840940  7.8010506629943848 10.9221048355102539
  2.8685564994812012  7.8156404495239258 10.1022996902465820
  5.7641916275024414  7.8150196075439453  9.2897920608520508
  1.1586143970489502  5.5786943435668945  9.4488821029663086
  4.0316009521484375  5.6259059906005859  8.6332654953002930
  6.9258785247802734  5.5869307518005371  7.8536434173583984
  3.3576202392578125  0.9635696411132812 11.8397531509399414
  6.2350616455078125  0.9731191396713257 11.0469055175781250
  0.4833606779575348  0.9674918651580811 12.6362466812133789
 -1.1005760431289673 10.0543203353881836 12.5159368515014648
  1.7749477624893188 10.0629310607910156 11.7276782989501953
  4.6443023681640625 10.0437326431274414 10.9359998703002930
  4.1141257286071777  1.2947102785110474 20.1327800750732422
  6.9746961593627930  1.3452407121658325 19.3205547332763672
  1.2347786426544189  1.2885800600051880 20.8917217254638672
  1.8654762506484985  5.8713335990905762 17.6803283691406250
  4.7148356437683105  5.8632907867431641 16.8805236816406250
 -1.0131936073303223  5.9052443504333496 18.4800510406494141
  2.9924867153167725  3.6708855628967285 16.1789741516113281
  5.8665528297424316  3.6874780654907227 15.3863248825073242
  0.1140275150537491  3.6855483055114746 16.9683265686035156
 -0.3392713963985443 10.4669561386108398 15.2090911865234375
  2.5094149112701416 10.5017833709716797 14.4128866195678711
  5.3783674240112305 10.4618387222290039 13.5907564163208008
  0.7606273889541626  8.2226085662841797 13.6436882019042969
  3.6229076385498047  8.2244596481323242 12.8454742431640625
  6.5082597732543945  8.2223844528198242 12.0512351989746094
  2.1976032257080078  3.2624974250793457 18.9421577453613281
  5.0838284492492676  3.2637341022491455 18.1485519409179688
 -0.6907158493995667  3.2645418643951416 19.7371540069580078
 -0.0257007963955402  7.7450742721557617 16.5676918029785156
  2.9362804889678955  7.7638869285583496 15.9115600585937500
  5.7626395225524902  7.7690076828002930 14.9570617675781250
  1.1380239725112915  5.4664835929870605 15.0094013214111328
  3.9951045513153076  5.4693498611450195 14.2164125442504883
  6.8779611587524414  5.4593133926391602 13.4351530075073242
  3.3517792224884033  0.9295582175254822 17.5250587463378906
  6.2330279350280762  0.9245596528053284 16.7277145385742188
  0.4673146009445190  0.9154981374740601 18.3027820587158203
 -1.1911556720733643  9.9778089523315430 18.1505432128906250
  1.6792200803756714 10.0346708297729492 17.2051792144775391
  4.8931894302368164  9.9264135360717773 16.6281509399414062
  4.5677714347839355  2.1689052581787109 10.6233892440795898
  7.4513931274414062  2.1508879661560059  9.8309202194213867
  1.6954568624496460  2.1568987369537354 11.4149532318115234
  2.3097553253173828  6.7276086807250977  8.1539697647094727
  5.2595672607421875  6.7210636138916016  7.3318681716918945
  0.6240120530128479  4.6095027923583984 13.1590213775634766
  3.4997432231903076  4.6057257652282715 12.3560228347778320
  6.3691272735595703  4.6114954948425293 11.5759429931640625
  8.5981664657592773  0.0565843693912029 14.0598993301391602
  2.8429260253906250  0.0596306994557381 15.6420965194702148
  5.7253918647766113  0.0600565932691097 14.8437223434448242
 -1.5903269052505493  9.2039690017700195 10.6922540664672852
  1.2814421653747559  9.1967582702636719  9.9136161804199219
  4.1577954292297363  9.2232170104980469  9.1198568344116211
  4.6018643379211426  2.2777318954467773 16.3977699279785156
  7.4785628318786621  2.2857377529144287 15.6159381866455078
  1.7140619754791260  2.2804942131042480 17.1947269439697266
 -0.4940350055694580  6.8395180702209473 14.7114076614379883
  2.3963756561279297  6.8658928871154785 13.9757671356201172
  5.2442126274108887  6.8497161865234375 13.1275062561035156
  0.6446286439895630  4.7020158767700195 18.9271488189697266
  3.5281646251678467  4.7025332450866699 18.1345348358154297
  6.4094829559326172  4.7214384078979492 17.3492088317871094
  8.5648117065429688  0.1250151842832565 19.6046066284179688
  2.8419737815856934  0.0888556689023972 21.3871707916259766
 -1.6171159744262695  9.1537399291992188 16.2488174438476562
  1.2702401876449585  9.0995340347290039 15.4775896072387695
  4.1261463165283203  9.1820945739746094 14.7295560836791992
 -2.0569272041320801 10.0084466934204102 19.7858295440673828
  3.3569841384887695  9.2236547470092773 17.4994888305664062
