Co O 
 1.0000000000000000
    10.2194099426269531    0.0000000000000000    1.0029000043869019
     3.9884040355682373   11.0621862411499023    0.0783940032124519
     0.0000000000000000    0.0000000000000000   30.3740768432617188
 Co  O  
  32  64
Cartesian
  2.9307451248168945  1.4273116588592529 18.9383907318115234
  8.6609268188476562  0.9202461242675781 20.5151767730712891
  7.6574811935424805  6.7590389251708984 19.8982257843017578
 12.5252332687377930  7.1935439109802246 19.1215209960937500
 10.5774831771850586  1.7698779106140137 19.0658740997314453
  5.5081996917724609  1.4106006622314453 19.7647781372070312
  5.0088233947753906  6.8549962043762207 18.9901447296142578
 10.3122186660766602  6.6598587036132812 20.7062282562255859
  2.4646792411804199  2.4203970432281494 16.3136787414550781
  7.8174071311950684  2.0710811614990234 18.1701087951660156
  7.1414165496826172  7.6593255996704102 17.1840915679931641
 11.9912099838256836  8.1711139678955078 16.4904518127441406
  9.9879713058471680  2.6351025104522705 16.4239101409912109
  5.1371197700500488  2.2350771427154541 17.2084636688232422
  4.4763274192810059  7.9108586311340332 16.3728656768798828
  9.8017530441284180  7.4631595611572266 18.1232948303222656
  1.9433469772338867  3.3002879619598389 13.7040519714355469
  7.3139514923095703  2.8939967155456543 15.4942102432250977
  6.5956120491027832  8.6795377731323242 14.6177625656127930
 11.4888858795166016  9.1273298263549805 13.8692741394042969
  9.4873666763305664  3.4568293094635010 13.7455711364746094
  4.6177392005920410  3.1152555942535400 14.5967845916748047
  3.9280536174774170  8.9309825897216797 13.8067789077758789
  9.2983560562133789  8.4190349578857422 15.5023555755615234
  1.5708770751953125  4.1151428222656250 11.1494188308715820
  6.7254366874694824  3.7664504051208496 12.8498792648315430
  6.0623512268066406  9.7295303344726562 12.0027542114257812
 10.9795246124267578  9.9302358627319336 11.2826042175292969
  8.6385278701782227  4.6219143867492676 11.4080410003662109
  4.1512703895568848  4.1113376617431641 11.9731311798095703
 13.6303501129150391  9.8257989883422852 12.0880079269409180
  8.7685155868530273  9.3987407684326172 12.8697271347045898
  1.3892492055892944  2.3264014720916748 19.3680744171142578
  6.1756525039672852  2.8448934555053711 18.6669960021972656
  6.1673512458801270  5.9215278625488281 20.1489315032958984
 10.9093780517578125  6.1717500686645508 18.9734191894531250
  2.6003372669219971  0.0671538859605789 19.7853031158447266
  7.1027770042419434  0.6502660512924194 19.5861244201660156
  6.5452485084533691  7.9842567443847656 18.9656524658203125
 11.7876777648925781  7.4963855743408203 20.8664054870605469
  8.8841466903686523  2.5724325180053711 19.6514301300048828
  4.0975961685180664  2.0610511302947998 20.3780708312988281
  3.5265932083129883  5.9984159469604492 18.9587554931640625
  8.8444099426269531  5.8217906951904297 21.0255298614501953
 10.1298103332519531  0.1973113417625427 20.0632457733154297
  4.6272468566894531  0.7669208645820618 18.2443561553955078
  3.9148392677307129  8.2024040222167969 18.1678142547607422
  9.1435508728027344  7.9366726875305176 19.8254776000976562
 11.0320053100585938  3.1548743247985840 17.8876476287841797
  5.6735305786132812  3.6427106857299805 16.0642910003662109
  5.6056184768676758  6.6195268630981445 17.0695648193359375
 10.4050502777099609  7.1444487571716309 16.3784179687500000
  1.9456840753555298  0.9986474514007568 17.4149723052978516
  6.8042387962341309  1.5153822898864746 16.6836376190185547
  6.0446901321411133  8.9641580581665039 16.3996791839599609
 11.4056282043457031  8.4702386856079102 18.2583599090576172
  8.3582715988159180  3.3968708515167236 16.9985580444335938
  3.4974348545074463  2.9245307445526123 17.7906703948974609
  2.8806304931640625  6.8881387710571289 16.3596153259277344
  8.2664051055908203  6.4101037979125977 17.9945774078369141
  9.4206943511962891  1.2765628099441528 17.6040782928466797
  4.1181812286376953  1.6979575157165527 15.7259359359741211
  3.3480150699615479  9.2012290954589844 15.5784835815429688
  8.7095880508422852  8.7332572937011719 17.2551212310791016
 10.4959173202514648  4.0231351852416992 15.2394466400146484
  5.1355962753295898  4.5377717018127441 13.4974822998046875
  5.0270161628723145  7.6261596679687500 14.5901622772216797
  9.8906621932983398  8.1297836303710938 13.7359533309936523
  1.4102694988250732  1.8922415971755981 14.8479204177856445
  6.2703976631164551  2.3814995288848877 14.0270347595214844
  5.4657373428344727  9.9703855514526367 13.9233455657958984
 10.8867769241333008  9.4409141540527344 15.6131896972656250
  7.8869180679321289  4.2582821846008301 14.3138475418090820
  2.9623456001281738  3.8377366065979004 15.1827278137207031
 12.5756216049194336  7.8625259399414062 14.7390165328979492
  7.7231655120849609  7.3888115882873535 15.4101791381835938
  8.9441757202148438  2.1254837512969971 14.9212007522583008
  3.5837101936340332  2.6145389080047607 13.1192359924316406
 13.0150251388549805 10.1713304519653320 13.9879436492919922
  8.1931972503662109  9.7018203735351562 14.6334247589111328
 10.1925773620605469  4.8711194992065430 12.3483085632324219
  4.4803729057312012  5.4724426269531250 11.1275119781494141
  4.5250916481018066  8.6004409790039062 12.0283222198486328
  9.5035076141357422  9.0915622711181641 11.1268520355224609
 11.1271295547485352  2.6764721870422363 13.2516889572143555
  5.6944026947021484  3.2166213989257812 11.5414733886718750
  4.8965606689453125 10.6744718551635742 10.8581686019897461
 10.3800249099731445 10.4211120605468750 13.0163478851318359
  7.1717572212219238  5.3484001159667969 11.8564405441284180
  2.4514410495758057  4.7690639495849609 12.6625185012817383
 12.1475915908813477  8.6514759063720703 12.1536722183227539
  7.1588444709777832  8.3869428634643555 12.8232917785644531
  8.4089879989624023  2.9584491252899170 12.2661752700805664
  2.9827268123626709  3.4776062965393066 10.5303354263305664
 12.4461393356323242 10.7733945846557617 10.9664459228515625
  7.5428667068481445 10.5907316207885742 12.0303506851196289
