Co O 
 1.0000000000000000
    10.2194099426269531    0.0000000000000000    1.0029000043869019
     3.9884040355682373   11.0621862411499023    0.0783940032124519
     0.0000000000000000    0.0000000000000000   30.3740768432617188
 Co  O  
  32  64
Cartesian
  2.9454164505004883  1.4652748107910156 18.9806575775146484
  8.3896961212158203  1.0109992027282715 20.6601829528808594
  7.6709804534912109  6.7418417930603027 19.8804702758789062
 12.5157022476196289  7.2432093620300293 19.0822391510009766
 10.5118703842163086  1.7185800075531006 19.0470962524414062
  5.6132893562316895  1.2907330989837646 19.7697906494140625
  4.9658794403076172  6.9735989570617676 18.9777584075927734
 10.3468799591064453  6.5911655426025391 20.7206153869628906
  2.4479472637176514  2.4275670051574707 16.3084163665771484
  7.8383307456970215  1.9672467708587646 18.1227741241455078
  7.1351900100708008  7.7094731330871582 17.2348747253417969
 11.9839086532592773  8.1803054809570312 16.4386081695556641
  9.9878549575805664  2.6524262428283691 16.4154472351074219
  5.1499943733215332  2.1984019279479980 17.2008228302001953
  4.4511508941650391  7.9481287002563477 16.3412227630615234
  9.8150501251220703  7.4820518493652344 18.1478557586669922
  1.9351048469543457  3.3405470848083496 13.7162637710571289
  7.3082222938537598  2.8819053173065186 15.5030870437622070
  6.6170372962951660  8.6629657745361328 14.6287937164306641
 11.4728012084960938  9.0920476913452148 13.8479185104370117
  9.4743318557739258  3.5639495849609375 13.7975397109985352
  4.6297068595886230  3.1138231754302979 14.6027383804321289
  3.9255096912384033  8.8663272857666016 13.7418642044067383
  9.3145589828491211  8.4115924835205078 15.5383701324462891
 11.6847476959228516  4.2370829582214355 12.1556377410888672
  6.7782535552978516  3.8228309154510498 12.8632764816284180
  6.1118922233581543  9.6116466522216797 12.0255823135375977
 10.9493055343627930 10.0079441070556641 11.2757205963134766
  8.8994894027709961  4.4981217384338379 11.2576065063476562
  4.1314363479614258  4.0524144172668457 11.9325437545776367
 13.6248311996459961  9.8425893783569336 12.1201362609863281
  8.7766790390014648  9.3416681289672852 12.9020843505859375
  1.3432258367538452  2.1840937137603760 19.4593143463134766
  6.1794734001159668  2.6577639579772949 18.6747894287109375
  6.0704846382141113  5.8474860191345215 19.8004608154296875
 10.9283008575439453  6.2730431556701660 19.0157451629638672
  2.4889924526214600  0.1758127659559250 19.9899864196777344
  7.2946133613586426  0.5911620855331421 19.2822380065917969
  6.5604205131530762  8.0251846313476562 19.0098457336425781
 11.8847827911376953  7.5560688972473145 20.7849025726318359
  8.8812770843505859  2.4322705268859863 19.5920143127441406
  4.0221295356750488  1.9668258428573608 20.3791294097900391
  3.4047088623046875  6.0752773284912109 18.8986034393310547
  8.7373247146606445  5.6131267547607422 20.7069091796875000
  9.9919967651367188  0.3990862667560577 20.1439113616943359
  4.6100578308105469  0.8131449818611145 18.3551483154296875
  3.8640530109405518  8.2399702072143555 18.0990219116210938
  9.2208309173583984  7.8121223449707031 19.9089469909667969
 11.0298833847045898  3.0832495689392090 17.8795604705810547
  5.6672501564025879  3.5489873886108398 16.0647315979003906
  5.5674257278442383  6.7569117546081543 17.1910648345947266
 10.3960485458374023  7.2212352752685547 16.4143981933593750
  1.9369319677352905  1.0641194581985474 17.4591045379638672
  6.7810482978820801  1.5339560508728027 16.6374759674072266
  6.0394115447998047  8.9212436676025391 16.3778915405273438
 11.4123506546020508  8.4615459442138672 18.1903877258300781
  8.3482217788696289  3.3172173500061035 16.9631061553955078
  3.4862954616546631  2.8578100204467773 17.7959022521972656
  2.8597438335418701  6.9736051559448242 16.3228302001953125
  8.2602167129516602  6.5104184150695801 18.0962944030761719
  9.4778747558593750  1.2990257740020752 17.5568161010742188
  4.1075887680053711  1.7632516622543335 15.7485055923461914
  3.3398048877716064  9.1440858840942383 15.4961080551147461
  8.7317533493041992  8.6834802627563477 17.2797508239746094
 10.5242042541503906  4.0038127899169922 15.2787952423095703
  5.1251020431518555  4.4819698333740234 13.4604816436767578
  5.0421867370605469  7.6553344726562500 14.6161851882934570
  9.8889312744140625  8.1247377395629883 13.8119029998779297
  1.4195472002029419  1.9812159538269043 14.8570718765258789
  6.2683057785034180  2.4305160045623779 14.0607452392578125
  5.5545287132263184  9.8552398681640625 13.7980957031250000
 10.8878068923950195  9.3753671646118164 15.5714426040649414
  7.8070087432861328  4.2401924133300781 14.3717231750488281
  2.9905254840850830  3.7731027603149414 15.1872377395629883
 12.5184278488159180  7.8854846954345703 14.7030506134033203
  7.7178626060485840  7.4379296302795410 15.5186042785644531
  8.9518108367919922  2.2171802520751953 14.9513883590698242
  3.5967876911163330  2.6734271049499512 13.1199340820312500
 13.0208873748779297 10.1012449264526367 13.8901119232177734
  8.2098255157470703  9.6034088134765625 14.6666221618652344
 10.0150775909423828  4.9543318748474121 12.6370792388916016
  4.5966105461120605  5.3716125488281250 10.9200963973999023
  4.5217256546020508  8.5597066879272461 11.9551591873168945
  9.3901987075805664  9.0312585830688477 11.2229814529418945
 11.1203289031982422  2.8693809509277344 13.2069349288940430
  5.7234354019165039  3.3406269550323486 11.4488744735717773
  4.9935994148254395 10.7482824325561523 11.1848678588867188
 10.3677082061767578 10.3170471191406250 12.9822874069213867
  7.3269228935241699  5.1851806640625000 11.7635812759399414
  2.4752466678619385  4.7373228073120117 12.5527582168579102
 12.0664892196655273  8.7684259414672852 12.0906934738159180
  7.1977877616882324  8.3426418304443359 12.8895893096923828
  8.4376840591430664  3.1011800765991211 12.3078470230102539
  3.0582773685455322  3.5719888210296631 10.5424165725708008
 12.5543241500854492 10.9827527999877930 11.2834987640380859
  7.6599173545837402 10.5120496749877930 12.0947189331054688
