Cu O 
 1.0000000000000000
     8.8076295852661133    0.0000000000000000    3.3388979434967041
     5.5603899955749512   10.3115978240966797    5.8186440467834473
     0.0000000000000000    0.0000000000000000   35.2668304443359375
 Cu  O  
  48  38
Cartesian
  9.9573993682861328  2.2228715419769287 18.0101966857910156
  4.0626826286315918  7.5865178108215332 17.6503772735595703
  7.2753124237060547  2.6123089790344238 20.7751655578613281
 10.0474195480346680  7.7414150238037109 23.7131309509277344
  4.4703550338745117  2.6042218208312988 17.6788158416748047
  7.2601623535156250  7.7191848754882812 20.5507297515869141
 11.4233312606811523 10.2584981918334961 25.2231826782226562
  8.6602668762207031  5.1023015975952148 22.3277931213378906
  8.6616964340209961 10.1783618927001953 22.1098365783691406
  5.8270688056945801  5.0522565841674805 19.1742820739746094
  8.8010349273681641  0.1525993794202805 16.8526935577392578
  2.8482058048248291  5.2180271148681641 16.2266235351562500
  7.4755973815917969  2.1141166687011719 17.8450241088867188
 10.1738653182983398  7.5679211616516113 20.7663440704345703
  3.6293368339538574  2.3810412883758545 15.0610294342041016
  6.5244235992431641  7.5784368515014648 17.9152679443359375
  1.4186736345291138  2.5268924236297607 17.5775489807128906
  4.2030267715454102  7.7560858726501465 20.4876670837402344
  6.0954761505126953  0.0801697894930840 16.4880733489990234
  8.7855176925659180  5.0589337348937988 19.2786293029785156
  2.4626610279083252  0.4344668090343475 13.7635030746459961
  5.2519636154174805  5.6687364578247070 16.7011661529541016
  5.6275272369384766 10.1672325134277344 22.0729885101318359
  2.8311433792114258  5.0430698394775391 19.1547851562500000
 10.1692981719970703  2.6295459270477295 23.9371223449707031
  4.1381387710571289  7.7110300064086914 23.5070838928222656
  7.9579858779907227  2.7742342948913574 26.4537391662597656
 10.6217641830444336  7.8885593414306641 29.4196071624755859
  4.1119642257690430  3.0413150787353516 23.6694831848144531
  6.9737911224365234  7.8996925354003906 26.5679817199707031
 11.8966970443725586  9.7980155944824219 30.6328907012939453
  9.1247730255126953  4.7211608886718750 27.7520332336425781
  2.8024129867553711  0.0968790128827095 22.2365627288818359
  5.4922747611999512  5.0747427940368652 25.0270404815673828
  8.7570924758911133  0.1129931509494781 22.3600654602050781
 11.5209960937500000  5.3002681732177734 25.2600059509277344
  7.1175975799560547  2.5518274307250977 23.8362674713134766
  9.8881702423095703  7.7485194206237793 26.7833175659179688
  4.3127226829528809  2.5438323020935059 20.7396469116210938
  7.1009845733642578  7.7259845733642578 23.6208171844482422
  1.6295754909515381  2.9326615333557129 23.5049610137939453
  4.2758569717407227  7.8796720504760742 26.3431015014648438
  5.7613759040832520  0.1037863343954086 22.3409347534179688
  8.4865741729736328  5.2893748283386230 25.2238502502441406
  2.9278123378753662  0.0539539940655231 19.1868152618408203
  5.7250885963439941  5.2094120979309082 22.1095962524414062
 14.2999935150146484 10.2494411468505859 31.1076316833496094
  2.7860820293426514  5.0027585029602051 24.6623611450195312
  1.5711487531661987  1.0464551448822021 16.4352645874023438
  4.2874250411987305  6.3052425384521484 19.2573814392089844
 10.1950492858886719  6.3504343032836914 19.3852005004882812
  4.4364261627197266  1.2825524806976318 19.2452487945556641
  7.2326822280883789  6.4263505935668945 22.1614494323730469
 10.1422424316406250  3.6667428016662598 19.3026466369628906
 12.9923133850097656  9.0883235931396484 22.3249263763427734
  4.3444342613220215  3.7768399715423584 19.1850261688232422
  7.1418070793151855  8.8991470336914062 22.0637435913085938
  7.3789472579956055  1.1381478309631348 19.5573978424072266
 10.1651449203491211  6.2955594062805176 22.4729919433593750
  4.6018800735473633  1.2365915775299072 16.3262329101562500
  7.3180313110351562  6.3392348289489746 19.1920280456542969
 10.1368904113769531  3.8127355575561523 22.3301334381103516
 12.9040794372558594  8.9679927825927734 25.3083667755126953
  7.3193140029907227  3.7700304985046387 19.1465034484863281
 10.0943250656127930  8.8888931274414062 22.1188087463378906
  4.3185262680053711  4.0327806472778320 16.2242202758789062
  7.1050124168395996  9.1435537338256836 19.1276569366455078
  1.4457396268844604  1.4893957376480103 22.2118988037109375
  4.1553578376770020  6.3779630661010742 25.0087337493896484
  7.2438120841979980  1.3790546655654907 22.3299045562744141
 10.0068225860595703  6.5684156417846680 25.2700099945068359
 10.0168447494506836  4.1094737052917480 25.0796298980712891
 12.8614015579223633  9.1617794036865234 28.0768756866455078
  7.1516342163085938  3.8737711906433105 22.2698497772216797
  9.9159803390502930  9.0414314270019531 25.1718273162841797
  6.9529628753662109  9.1168661117553711 27.9493751525878906
  7.2693595886230469  1.1226668357849121 25.2910060882568359
 10.0428285598754883  6.3232679367065430 28.2063636779785156
  4.2687883377075195  1.3857328891754150 22.3679656982421875
  7.0538363456726074  6.5787267684936523 25.2157211303710938
  1.4512776136398315  1.3438923358917236 19.1849441528320312
  4.2443251609802246  6.5000696182250977 22.0239276885986328
  6.9862151145935059  3.9190080165863037 25.1889724731445312
  9.8307199478149414  9.1286354064941406 28.1424102783203125
  4.2090644836425781  4.0178694725036621 21.9577312469482422
  6.9835820198059082  9.1719560623168945 24.8608188629150391
