Cu O 
 1.0000000000000000
     8.8076295852661133    0.0000000000000000    3.3388979434967041
     5.5603899955749512   10.3115978240966797    5.8186440467834473
     0.0000000000000000    0.0000000000000000   35.2668304443359375
 Cu  O  
  48  38
Cartesian
  1.3938406705856323  2.5550153255462646 14.6695318222045898
  4.1838831901550293  7.7116446495056152 17.5774803161621094
  7.2635765075683594  2.5763692855834961 20.8096313476562500
 10.0402984619140625  7.7276268005371094 23.7195835113525391
  4.3362259864807129  2.5784335136413574 17.7350883483886719
  7.1153755187988281  7.7345533370971680 20.6400890350341797
  5.8742103576660156  0.0016866681398824 19.3664779663085938
  8.6574296951293945  5.1569437980651855 22.2827148437500000
  2.9401354789733887 -0.0020761371124536 16.2871990203857422
  5.7119498252868652  5.1606898307800293 19.1956939697265625
 -0.0055148885585368  0.0039102612063289 13.2464122772216797
  2.7960202693939209  5.1898717880249023 16.1482067108154297
  7.2712101936340332  2.5630273818969727 17.8664875030517578
 10.0477609634399414  7.7222146987915039 20.7511348724365234
  4.2931156158447266  2.5564992427825928 14.8097801208496094
  7.0717911720275879  7.7108869552612305 17.7229709625244141
  1.3861918449401855  2.5750062465667725 17.5939064025878906
  4.1681280136108398  7.7345380783081055 20.5128173828125000
  5.9157118797302246  0.0113587407395244 16.4407882690429688
  8.6777248382568359  5.1738967895507812 19.3481502532958984
  2.8983018398284912  0.0049648280255497 13.3883762359619141
  5.6831865310668945  5.1586613655090332 16.2988967895507812
  0.0019085820531473  0.0053846132941544 16.1614608764648438
  2.7791497707366943  5.1605916023254395 19.0756340026855469
  1.3940002918243408  2.5808107852935791 20.5821971893310547
  4.1724638938903809  7.7328267097473145 23.4820003509521484
  7.2947387695312500  2.5992710590362549 26.7054786682128906
 10.0764093399047852  7.7564258575439453 29.6114292144775391
  4.3166046142578125  2.5927686691284180 23.6485042572021484
  7.1004920005798340  7.7452316284179688 26.5826148986816406
  5.9044799804687500 -0.0030371781904250 25.2161769866943359
  8.6892595291137695  5.1505856513977051 28.1267070770263672
  2.9101064205169678 -0.0181153118610382 22.1669273376464844
  5.6719202995300293  5.1442542076110840 25.0742645263671875
  0.0010743425227702 -0.0047803535126150 19.1005134582519531
  2.7783589363098145  5.1504468917846680 22.0146408081054688
  7.2516322135925293  2.5774097442626953 23.7799301147460938
 10.0328292846679688  7.7328748703002930 26.6937332153320312
  4.3242511749267578  2.5794625282287598 20.7054405212402344
  7.1079564094543457  7.7397894859313965 23.6140747070312500
  1.3863240480422974  2.6008396148681641 23.5066032409667969
  4.1566710472106934  7.7557187080383301 26.4171237945556641
  5.8759064674377441 -0.0048808916471899 22.3193836212158203
  8.6476917266845703  5.1579499244689941 25.2278251647949219
  2.9303967952728271 -0.0011697476729751 19.2323760986328125
  5.7136149406433105  5.1541247367858887 22.1485557556152344
 -0.0161612555384636 -0.0342493541538715 22.0280551910400391
  2.7857489585876465  5.1516671180725098 24.9297637939453125
  1.4698228836059570  1.2632813453674316 16.1687965393066406
  4.2488985061645508  6.4184050559997559 19.0753231048583984
 10.1301870346069336  6.4542350769042969 19.3531265258789062
  4.4037747383117676  1.2890770435333252 19.2259044647216797
  7.1833481788635254  6.4450607299804688 22.1384449005126953
 10.0886669158935547  3.8601670265197754 19.4767684936523438
 12.8744831085205078  9.0810470581054688 22.3823356628417969
  4.2488093376159668  3.8642702102661133 19.2206420898437500
  7.0245361328125000  9.0184650421142578 22.1307182312011719
  7.3405785560607910  1.2656017541885376 19.3675594329833984
 10.1219635009765625  6.4210200309753418 22.2997455596923828
  4.4284381866455078  1.2617003917694092 16.2892227172851562
  7.1967344284057617  6.4160304069519043 19.1972827911376953
 10.1211853027343750  3.8648710250854492 22.4197406768798828
 12.9016141891479492  9.0183477401733398 25.3321533203125000
  7.1862292289733887  3.8961415290832520 19.3483638763427734
  9.9389438629150391  8.9986276626586914 22.2421741485595703
  4.2618665695190430  3.9360795021057129 16.2627544403076172
  7.0652184486389160  9.0779647827148438 19.1758136749267578
  1.4994132518768311  1.2960690259933472 22.0380153656005859
  4.2737975120544434  6.3863773345947266 24.9514980316162109
  7.3390049934387207  1.2915979623794556 22.2943820953369141
 10.1233930587768555  6.4485111236572266 25.2031860351562500
 10.1177196502685547  3.8926186561584473 25.3461017608642578
 12.8993291854858398  9.0490770339965820 28.2585105895996094
  7.1839380264282227  3.8667995929718018 22.2891063690185547
  9.9647779464721680  9.0224037170410156 25.1954078674316406
  7.0180921554565430  9.0129318237304688 27.9804897308349609
  7.3258633613586426  1.2198663949966431 25.2522811889648438
 10.0830659866333008  6.3895368576049805 28.1576156616210938
  4.4015936851501465  1.2598410844802856 22.1666431427001953
  7.2096710205078125  6.4688138961791992 25.0914154052734375
  1.4667482376098633  1.2908998727798462 19.0956916809082031
  4.2466711997985840  6.4489498138427734 22.0012474060058594
  7.1597795486450195  3.8943011760711670 25.2257957458496094
  9.9514760971069336  9.0515251159667969 28.1359252929687500
  4.2473297119140625  3.8902585506439209 22.1475543975830078
  7.0263271331787109  9.0462284088134766 25.0337848663330078
