Cr O 
 1.0000000000000000
     8.4924907684326172    0.0000000000000000    0.0187919996678829
     4.1738448143005371   11.7088270187377930    0.4329900145530701
     0.0000000000000000    0.0000000000000000   32.2963218688964844
 Cr  O  
  48  44
Cartesian
  3.1603620052337646  3.9334399700164795 10.9989109039306641
  5.2472844123840332  9.7878532409667969 11.2154054641723633
  7.4066076278686523  3.9334399700164795 11.0083065032958984
  9.4935302734375000  9.7878532409667969 11.2248010635375977
  1.0530726909637451  1.3721222877502441 11.9108114242553711
  3.1399953365325928  7.2265357971191406 12.1273059844970703
  5.2993183135986328  1.3721222877502441 11.9202070236206055
  7.3862409591674805  7.2265357971191406 12.1367015838623047
  5.2789597511291504  4.6652417182922363 13.0486030578613281
  7.3658823966979980 10.5196552276611328 13.2650985717773438
  9.5252056121826172  4.6652417182922363 13.0579996109008789
 11.6121273040771484 10.5196552276611328 13.2744941711425781
  3.1716747283935547  2.1039357185363770 13.9605045318603516
  5.2585968971252441  7.9583492279052734 14.1769990921020508
  7.4179201126098633  2.1039357185363770 13.9699001312255859
  9.5048427581787109  7.9583492279052734 14.1863956451416016
  3.1513078212738037  5.3970317840576172 15.0888996124267578
  5.2382345199584961 11.2514572143554688 15.3053951263427734
  7.3975534439086914  5.3970317840576172 15.0982952117919922
  9.4844799041748047 11.2514572143554688 15.3147907257080078
  1.0440226793289185  2.8357257843017578 16.0007686614990234
  3.1309452056884766  8.6901388168334961 16.2172641754150391
  5.2902679443359375  2.8357257843017578 16.0101966857910156
  7.3771905899047852  8.6901388168334961 16.2266921997070312
  3.1829872131347656  0.2744314968585968 16.9220981597900391
  5.2699098587036133  6.1288452148437500 17.1385936737060547
  7.4292325973510742  0.2744314968585968 16.9314937591552734
  9.5161552429199219  6.1288452148437500 17.1479892730712891
  3.1626245975494385  3.5675389766693115 18.0504932403564453
  5.2495470046997070  9.4219522476196289 18.2669887542724609
  7.4088702201843262  3.5675389766693115 18.0598907470703125
  9.4957923889160156  9.4219522476196289 18.2763843536376953
  1.0553352832794189  1.0062214136123657 18.9623947143554688
  3.1422576904296875  6.8606348037719727 19.1788902282714844
  5.3015809059143066  1.0062214136123657 18.9717903137207031
  7.3885030746459961  6.8606348037719727 19.1882858276367188
  5.2812223434448242  4.2993407249450684 20.1001873016357422
  7.3681406974792480 10.1537427902221680 20.3166809082031250
  9.5274677276611328  4.2993407249450684 20.1095829010009766
 11.6143865585327148 10.1537427902221680 20.3260765075683594
  3.1739330291748047  1.7380231618881226 21.0120868682861328
  5.2608556747436523  7.5924367904663086 21.2285823822021484
  7.4201784133911133  1.7380231618881226 21.0214824676513672
  9.5071010589599609  7.5924367904663086 21.2379779815673828
  3.1535744667053223  5.0311422348022461 22.1404838562011719
  5.2404971122741699 10.8855562210083008 22.3569793701171875
  7.3998198509216309  5.0311422348022461 22.1498794555664062
  9.4867429733276367 10.8855562210083008 22.3663749694824219
  4.2117223739624023  5.5831665992736816 11.5743246078491211
  6.2986450195312500 11.4375801086425781 11.7908191680908203
  8.4579677581787109  5.5831665992736816 11.5837202072143555
 10.5448904037475586 11.4375801086425781 11.8002157211303711
  4.2275953292846680  3.0155029296875000 12.4731569290161133
  6.3145174980163574  8.8699169158935547 12.6896514892578125
  8.4738407135009766  3.0155029296875000 12.4825525283813477
 10.5607633590698242  8.8699169158935547 12.6990470886230469
  4.2433977127075195  0.4605549871921539 13.4075222015380859
  6.3303203582763672  6.3149685859680176 13.6240177154541016
  8.4896430969238281  0.4605549871921539 13.4169187545776367
 10.5765657424926758  6.3149685859680176 13.6334133148193359
  2.0999474525451660  3.7473046779632568 14.5134534835815430
  4.1868700981140137  9.6017179489135742 14.7299480438232422
  6.3461928367614746  3.7473046779632568 14.5228490829467773
  8.4331150054931641  9.6017179489135742 14.7393445968627930
  2.1157498359680176  1.1923567056655884 15.4478187561035156
  4.2026724815368652  7.0467700958251953 15.6643142700195312
  6.3619952201843262  1.1923567056655884 15.4572153091430664
  8.4489183425903320  7.0467700958251953 15.6737098693847656
  4.2185449600219727  4.4791064262390137 16.5631465911865234
  6.3054676055908203 10.3335199356079102 16.7796401977539062
  8.4647903442382812  4.4791064262390137 16.5725421905517578
 10.5517129898071289 10.3335199356079102 16.7890377044677734
  4.2343478202819824  1.9241583347320557 17.4975128173828125
  6.3212699890136719  7.7785720825195312 17.7140064239501953
  8.4805927276611328  1.9241583347320557 17.5069084167480469
 10.5675153732299805  7.7785720825195312 17.7234020233154297
  2.0908973217010498  5.2109079360961914 18.6034431457519531
  4.1778197288513184 11.0653219223022461 18.8199386596679688
  6.3371429443359375  5.2109079360961914 18.6128387451171875
  8.4240655899047852 11.0653219223022461 18.8293342590332031
  2.1066999435424805  2.6559600830078125 19.5378093719482422
  4.1936225891113281  8.5103731155395508 19.7543029785156250
  6.3529453277587891  2.6559600830078125 19.5472049713134766
  8.4398679733276367  8.5103731155395508 19.7637004852294922
  2.1225724220275879  0.0882962644100189 20.4366416931152344
  4.2094950675964355  5.9427099227905273 20.6531352996826172
  6.3688178062438965  0.0882962644100189 20.4460372924804688
  8.4557409286499023  5.9427099227905273 20.6625308990478516
  4.2252974510192871  3.3877618312835693 21.5875015258789062
  6.3122200965881348  9.2421751022338867 21.8039970397949219
  8.4715433120727539  3.3877618312835693 21.5968971252441406
 10.5584659576416016  9.2421751022338867 21.8133926391601562
