Cr O 
 1.0000000000000000
     8.4924907684326172    0.0000000000000000    0.0187919996678829
     4.1738448143005371   11.7088270187377930    0.4329900145530701
     0.0000000000000000    0.0000000000000000   32.2963218688964844
 Cr  O  
  48  44
Cartesian
  3.2836835384368896  3.8497052192687988 10.8852825164794922
  5.3706073760986328  9.7041282653808594 11.1017780303955078
  7.5299348831176758  3.8497033119201660 10.8946800231933594
  9.6168527603149414  9.7041206359863281 11.1111717224121094
  1.0066341161727905  1.2762818336486816 11.7143182754516602
  3.0935585498809814  7.1306905746459961 11.9308080673217773
  5.2528924942016602  1.2762768268585205 11.7237148284912109
  7.3398141860961914  7.1306838989257812 11.9402008056640625
  5.2906007766723633  4.6663494110107422 12.9153108596801758
  7.3775258064270020 10.5207691192626953 13.1318082809448242
  9.5368556976318359  4.6663475036621094 12.9247179031372070
 11.6237754821777344 10.5207710266113281 13.1412067413330078
  3.1487128734588623  2.0973999500274658 13.8675346374511719
  5.2356405258178711  7.9518022537231445 14.0840234756469727
  7.3949742317199707  2.0973916053771973 13.8769168853759766
  9.4819059371948242  7.9517917633056641 14.0934047698974609
  3.1498284339904785  5.4003548622131348 15.0377798080444336
  5.2367515563964844 11.2547855377197266 15.2542734146118164
  7.3960661888122559  5.4003558158874512 15.0471687316894531
  9.4829902648925781 11.2547845840454102 15.2636642456054688
  1.0365957021713257  2.8402972221374512 15.9793233871459961
  3.1235234737396240  8.6946973800659180 16.1958198547363281
  5.2828173637390137  2.8403086662292480 15.9887390136718750
  7.3697476387023926  8.6947069168090820 16.2052326202392578
  3.1753232479095459  0.2706517577171326 16.9426708221435547
  5.2622451782226562  6.1250467300415039 17.1591682434082031
  7.4215707778930664  0.2706518769264221 16.9520683288574219
  9.5084905624389648  6.1250433921813965 17.1685619354248047
  3.1596698760986328  3.5650641918182373 18.1005897521972656
  5.2465939521789551  9.4194688796997070 18.3170890808105469
  7.4059004783630371  3.5650699138641357 18.1099987030029297
  9.4928216934204102  9.4194755554199219 18.3264999389648438
  1.0299561023712158  1.0137968063354492 19.0556030273437500
  3.1168758869171143  6.8681926727294922 19.2721023559570312
  5.2762012481689453  1.0137969255447388 19.0649986267089844
  7.3631215095520020  6.8681921958923340 19.2814960479736328
  5.2903685569763184  4.2988862991333008 20.2332458496093750
  7.3772873878479004 10.1532983779907227 20.4497451782226562
  9.5365991592407227  4.2988877296447754 20.2426586151123047
 11.6235198974609375 10.1533002853393555 20.4591560363769531
  3.1220653057098389  1.8340145349502563 21.2100200653076172
  5.2089838981628418  7.6884212493896484 21.4265155792236328
  7.3683075904846191  1.8340151309967041 21.2194137573242188
  9.4552297592163086  7.6884217262268066 21.4359092712402344
  3.2731761932373047  5.1104474067687988 22.2556991577148438
  5.3600912094116211 10.9648609161376953 22.4721908569335938
  7.5194110870361328  5.1104502677917480 22.2650928497314453
  9.6063365936279297 10.9648685455322266 22.4815940856933594
  4.1623864173889160  5.5317349433898926 11.4284448623657227
  6.2493143081665039 11.3861503601074219 11.6449537277221680
  8.4086332321166992  5.5317401885986328 11.4378471374511719
 10.4955549240112305 11.3861532211303711 11.6543474197387695
  4.2637453079223633  2.9588572978973389 12.3342208862304688
  6.3506708145141602  8.8132696151733398 12.5507202148437500
  8.5099887847900391  2.9588532447814941 12.3436241149902344
 10.5969142913818359  8.8132658004760742 12.5601186752319336
  4.2325205802917480  0.4534733891487122 13.3261098861694336
  6.3194375038146973  6.3079023361206055 13.5425949096679688
  8.4787607192993164  0.4534865021705627 13.3355035781860352
 10.5656824111938477  6.3079137802124023 13.5519924163818359
  2.0736432075500488  3.7505898475646973 14.4410629272460938
  4.1605639457702637  9.6050024032592773 14.6575613021850586
  6.3198847770690918  3.7505986690521240 14.4504528045654297
  8.4068155288696289  9.6050081253051758 14.6669530868530273
  2.1395435333251953  1.2005639076232910 15.4162092208862305
  4.2264657020568848  7.0549960136413574 15.6326971054077148
  6.3857884407043457  1.2005541324615479 15.4256057739257812
  8.4727134704589844  7.0549821853637695 15.6420907974243164
  4.1841163635253906  4.4796552658081055 16.5641117095947266
  6.2710409164428711 10.3340587615966797 16.7806034088134766
  8.4303579330444336  4.4796638488769531 16.5734977722167969
 10.5172824859619141 10.3340692520141602 16.7899971008300781
  4.2574372291564941  1.9166260957717896 17.5259971618652344
  6.3443646430969238  7.7710566520690918 17.7424850463867188
  8.5036783218383789  1.9166141748428345 17.5353927612304688
 10.5906028747558594  7.7710461616516113 17.7518825531005859
  2.0627205371856689  5.2090358734130859 18.6781330108642578
  4.1496443748474121 11.0634422302246094 18.8946285247802734
  6.3089785575866699  5.2090277671813965 18.6875286102294922
  8.3959007263183594 11.0634336471557617 18.9040241241455078
  2.0944945812225342  2.6633188724517822 19.6161823272705078
  4.1814198493957520  8.5177440643310547 19.8326740264892578
  6.3407478332519531  2.6633250713348389 19.6255722045898438
  8.4276733398437500  8.5177507400512695 19.8420639038085938
  2.1534824371337891  0.1460881084203720 20.5801162719726562
  4.2404050827026367  6.0005064010620117 20.7966136932373047
  6.3997268676757812  0.1460824906826019 20.5895175933837891
  8.4866514205932617  6.0005016326904297 20.8060169219970703
  4.1751527786254883  3.4360733032226562 21.7306041717529297
  6.2620759010314941  9.2904901504516602 21.9470977783203125
  8.4213914871215820  3.4360783100128174 21.7400054931640625
 10.5083160400390625  9.2904977798461914 21.9565010070800781
