V  O 
 1.0000000000000000
     9.6564540863037109    0.0000000000000000   -2.8766720294952393
    11.8328218460083008    7.2405490875244141   -2.6157910823822021
     0.0000000000000000    0.0000000000000000   35.2919616699218750
 V   O  
  28  60
Cartesian
 18.2122535705566406  6.7580757141113281  8.4032497406005859
 12.2990293502807617  3.1358497142791748  9.7105512619018555
 15.3355197906494141  5.1211600303649902  9.0207233428955078
  9.4126234054565430  1.5029380321502686 10.3319816589355469
  6.1294317245483398  2.2123031616210938 13.0231885910034180
 12.0468082427978516  5.8356599807739258 11.7159023284912109
  3.1547150611877441  0.5145257711410522 13.6454067230224609
  9.0721311569213867  4.1362805366516113 12.3340206146240234
 15.3427257537841797  4.9427351951599121 12.5129594802856445
  9.4301414489746094  1.3203293085098267 13.8232707977294922
 18.3359165191650391  6.8029136657714844 11.9028663635253906
 12.4199285507202148  3.1821489334106445 13.2153844833374023
  3.1496999263763428  0.4639007449150085 17.3439197540283203
  9.0716123580932617  4.0713124275207520 16.0134429931640625
  6.1292695999145508  2.2815907001495361 16.6890563964843750
 12.0519723892211914  5.8986296653747559 15.3851022720336914
 18.3262958526611328  6.7978267669677734 15.3996562957763672
 12.4125013351440430  3.1591422557830811 16.7190532684326172
 15.3709344863891602  4.9639348983764648 16.0596466064453125
  9.4712991714477539  1.3301451206207275 17.3572654724121094
  6.1030654907226562  2.3031215667724609 20.2841777801513672
 12.0344676971435547  5.9422235488891602 18.9959335327148438
  3.1425189971923828  0.4596086144447327 20.9755992889404297
  9.0763778686523438  4.0506219863891602 19.7354450225830078
 15.4197273254394531  5.0098567008972168 19.5125465393066406
  9.5341091156005859  1.3538886308670044 20.8122310638427734
 18.3847312927246094  6.6075282096862793 18.9289779663085938
 12.4766683578491211  2.9899487495422363 20.2231941223144531
 13.9665641784667969  6.0629467964172363  8.3453187942504883
  8.0465869903564453  2.4425330162048340  9.6550693511962891
 16.4956607818603516  6.4404945373535156  8.3239974975585938
 10.5780019760131836  2.8164649009704590  9.6333789825439453
  3.0389778614044189  1.2481079101562500 12.1670713424682617
  8.9560298919677734  4.8671617507934570 10.8603525161743164
  6.2438864707946777  1.4290088415145874 11.5046701431274414
 12.1591510772705078  5.0491328239440918 10.1970796585083008
 20.2306919097900391  7.1025023460388184  8.2640142440795898
 14.3151674270629883  3.4803726673126221  9.5734071731567383
  1.2951331138610840  0.1908378452062607 13.8286800384521484
  7.2098245620727539  3.8093807697296143 12.5228633880615234
 15.2592363357543945  5.8282108306884766 10.7198772430419922
  9.3409538269042969  2.2090122699737549 12.0254745483398438
 18.4670677185058594  5.9553999900817871 10.1204729080200195
 12.5505046844482422  2.3350188732147217 11.4267835617065430
  5.0278306007385254  0.7015478014945984 13.8387651443481445
 10.9415702819824219  4.3212194442749023 12.5305500030517578
  7.5847239494323730  1.0847097635269165 13.8337678909301758
 13.5014839172363281  4.7048950195312500 12.5258560180664062
  5.9852285385131836  3.0808465480804443 14.9149751663208008
 11.9007062911987305  6.7013821601867676 13.6058540344238281
 15.1062307357788086  6.8938264846801758 12.9976711273193359
  9.1885595321655273  3.2765016555786133 14.3098592758178711
 17.2753467559814453  5.2494616508483887 12.5062446594238281
 11.3556308746337891  1.6300114393234253 13.8117427825927734
  4.2181878089904785  1.9903045892715454 16.7036190032958984
 10.1300077438354492  5.6088185310363770 15.3978796005249023
  6.3809051513671875  0.3613851368427277 16.1953430175781250
 12.2970104217529297  3.9828619956970215 14.8818740844726562
 15.5036077499389648  4.1680374145507812 14.3186197280883789
  9.5851316452026367  0.5502685904502869 15.6260023117065430
 13.9232473373413086  6.1493754386901855 15.3883457183837891
  8.0066022872924805  2.5318768024444580 16.6965866088867188
 16.4466285705566406  6.5217227935791016 15.3900089263916016
 10.5169839859008789  2.9034202098846436 16.6972808837890625
  3.0316548347473145  1.2548592090606689 19.0617046356201172
  8.9508523941040039  4.8556189537048340 17.7869224548339844
  6.2347598075866699  1.4338661432266235 18.4903202056884766
 12.1490974426269531  5.0559153556823730 17.1773509979248047
 20.2076492309570312  7.0658059120178223 15.3688783645629883
 14.3056993484497070  3.4449093341827393 16.6772003173828125
  1.2554996013641357  0.1890064924955368 20.8737812042236328
  7.1938285827636719  3.8125088214874268 19.5661087036132812
 15.2576894760131836  5.7774438858032227 17.7923641204833984
  9.3305158615112305  2.2003827095031738 19.0966262817382812
 18.4624900817871094  5.9400897026062012 17.1853580474853516
 12.5395689010620117  2.3592755794525146 18.4974308013916016
  5.0867352485656738  0.6964359879493713 20.9083251953125000
 10.9652442932128906  4.3134584426879883 19.5959854125976562
  7.5733594894409180  1.0710836648941040 20.9284706115722656
 13.4901437759399414  4.6888484954833984 19.6236171722412109
  5.9795503616333008  3.1385760307312012 21.9218006134033203
 11.8900232315063477  6.7111773490905762 20.6033573150634766
 15.1267814636230469  6.7924547195434570 19.9784374237060547
  9.1905326843261719  3.2704522609710693 21.2327594757080078
 17.2268180847167969  5.3298034667968750 19.5779018402099609
 11.2982559204101562  1.7040801048278809 20.8844070434570312
  4.1364974975585938  2.0999813079833984 23.7407531738281250
 10.0516242980957031  5.7294321060180664 22.4262962341308594
