V  O 
 1.0000000000000000
     9.6564540863037109    0.0000000000000000   -2.8766720294952393
    11.8328218460083008    7.2405490875244141   -2.6157910823822021
     0.0000000000000000    0.0000000000000000   35.2919616699218750
 V   O  
  28  60
Cartesian
 18.2738323211669922  6.7296109199523926  8.4826126098632812
 12.3328628540039062  3.1579406261444092  9.8002777099609375
 15.2853002548217773  5.0291790962219238  8.9833383560180664
  9.3698759078979492  1.4204384088516235 10.2990856170654297
  6.1277651786804199  2.2543618679046631 13.0474977493286133
 12.0509872436523438  5.8986821174621582 11.7983989715576172
  3.1601684093475342  0.5149118304252625 13.6108093261718750
  9.0808105468750000  4.1131873130798340 12.3473224639892578
 15.3647060394287109  4.9360404014587402 12.4500188827514648
  9.4280748367309570  1.3968654870986938 13.8184871673583984
 18.3177795410156250  6.8066387176513672 11.9430465698242188
 12.4044914245605469  3.1859760284423828 13.2599115371704102
  3.1576755046844482  0.4143147766590118 17.2760467529296875
  9.0689849853515625  4.0835242271423340 16.0851726531982422
  6.1226754188537598  2.2315046787261963 16.7216873168945312
 12.0304098129272461  5.8918581008911133 15.4074592590332031
 18.3500823974609375  6.8238244056701660 15.4385910034179688
 12.4278516769409180  3.2063102722167969 16.7271366119384766
 15.4054079055786133  4.9142098426818848 15.9084520339965820
  9.4818906784057617  1.3194980621337891 17.2865066528320312
  6.0913500785827637  2.3702924251556396 20.4473972320556641
 12.0086994171142578  5.8918075561523438 19.0784511566162109
  3.1576611995697021  0.4899324774742126 20.8630199432373047
  9.0899829864501953  4.0452480316162109 19.7465076446533203
 15.4221534729003906  5.2463145256042480 19.4062480926513672
  9.5195417404174805  1.4338068962097168 20.7422294616699219
 18.4257354736328125  6.7646350860595703 18.9132614135742188
 12.5492477416992188  3.0623424053192139 20.2273998260498047
 14.1279363632202148  5.5365986824035645  7.9751582145690918
  8.1912288665771484  1.9174177646636963  9.3110752105712891
 16.6399726867675781  6.1307220458984375  8.1829919815063477
 10.7025480270385742  2.5131278038024902  9.5010814666748047
  3.2041909694671631  1.1639505624771118 12.0738420486450195
  9.1364135742187500  4.7692432403564453 10.7999248504638672
  6.2222270965576172  1.2488728761672974 11.5336170196533203
 12.1385765075683594  4.8843727111816406 10.2298898696899414
 20.2722625732421875  7.0421452522277832  8.1941213607788086
 14.3514375686645508  3.4288632869720459  9.4983577728271484
  1.2726991176605225  0.1408716887235641 13.6668806076049805
  7.1815333366394043  3.7608499526977539 12.3527984619140625
 15.2142257690429688  5.8460421562194824 10.6255884170532227
  9.3014059066772461  2.2244784832000732 11.9520111083984375
 18.4794673919677734  5.8901462554931641 10.1651678085327148
 12.5674648284912109  2.2721440792083740 11.4642438888549805
  5.0461034774780273  0.6609630584716797 13.8652219772338867
 10.9772977828979492  4.2900762557983398 12.5662984848022461
  7.5904107093811035  1.0390979051589966 13.8248529434204102
 13.5128021240234375  4.6689639091491699 12.5106639862060547
  6.0077304840087891  3.0441689491271973 14.8438825607299805
 11.9330730438232422  6.6795730590820312 13.5448055267333984
 15.0801229476928711  6.8622169494628906 13.0110559463500977
  9.1599826812744141  3.2587485313415527 14.3100652694702148
 17.2476100921630859  5.2547640800476074 12.4922151565551758
 11.3444089889526367  1.6323946714401245 13.8190832138061523
  4.2217330932617188  1.9921131134033203 16.6990470886230469
 10.1438179016113281  5.6200480461120605 15.3874282836914062
  6.3831386566162109  0.3415144681930542 16.2434749603271484
 12.3043384552001953  3.9853284358978271 14.9286613464355469
 15.4910297393798828  4.1477842330932617 14.2513675689697266
  9.5775222778320312  0.5566522479057312 15.5953454971313477
 13.9153146743774414  6.1441464424133301 15.4032106399536133
  7.9959931373596191  2.5142922401428223 16.7008571624755859
 16.4512252807617188  6.4898066520690918 15.4027938842773438
 10.5393590927124023  2.8778676986694336 16.7061500549316406
  3.0684738159179688  1.2791417837142944 19.1024532318115234
  8.9637355804443359  4.8734087944030762 17.7662448883056641
  6.2078976631164551  1.4414149522781372 18.5414619445800781
 12.1374397277832031  5.0881571769714355 17.2375068664550781
 20.2116260528564453  7.0753149986267090 15.3891048431396484
 14.2974739074707031  3.4674801826477051 16.6855545043945312
  1.2601646184921265  0.2060926705598831 20.8509101867675781
  7.1596674919128418  3.8400120735168457 19.5168342590332031
 15.2644920349121094  5.8169279098510742 17.7289428710937500
  9.3200721740722656  2.2483830451965332 19.0513725280761719
 18.4994316101074219  5.9382605552673340 17.2677154541015625
 12.5633382797241211  2.3436467647552490 18.5581531524658203
  5.0445384979248047  0.7714780569076538 21.1000728607177734
 10.9267320632934570  4.3754491806030273 19.7062034606933594
  7.5294203758239746  1.1441173553466797 21.0312957763671875
 13.4126243591308594  4.6729822158813477 19.7851867675781250
  5.9555163383483887  3.3668434619903564 21.9027595520019531
 11.8905191421508789  6.8891510963439941 20.5693740844726562
 14.8960008621215820  6.7755551338195801 20.0313968658447266
  9.0000991821289062  3.3873775005340576 21.2898273468017578
 17.1286048889160156  5.5638303756713867 19.6645908355712891
 11.1520328521728516  2.0099434852600098 21.0548667907714844
  4.0692844390869141  2.4211194515228271 24.0005054473876953
  9.9186153411865234  6.3030138015747070 22.8283386230468750
