V  O 
 1.0000000000000000
    10.8729696273803711    0.0000000000000000    0.0000000000000000
     1.3628820180892944   10.0752592086791992   -4.5049557685852051
     0.0000000000000000    0.0000000000000000   31.5346927642822266
 V   O  
  28  71
Cartesian
  3.5021216869354248  8.9967508316040039  8.8808889389038086
  8.8557806015014648  9.1131467819213867  8.9862575531005859
  8.1633920669555664  3.8171825408935547 10.7728672027587891
  2.4523961544036865  3.6790778636932373 10.8871450424194336
  4.6168055534362793  6.0708637237548828 10.3659849166870117
  9.9355440139770508  6.3658280372619629 10.7578163146972656
  9.3450555801391602  0.9835928082466125 12.5789995193481445
  3.8926815986633301  1.0154855251312256 12.6309576034545898
  5.3430728912353516  3.7255706787109375 12.8665800094604492
 10.6846389770507812  3.7465825080871582 13.0747928619384766
  5.7867922782897949  8.8368787765502930 11.2055072784423828
 11.4699382781982422  8.9461164474487305 11.0795373916625977
  6.0971074104309082  1.4031641483306885 15.4257097244262695
  0.9190565943717957  1.3329849243164062 15.2637853622436523
  6.9837636947631836  6.2723975181579590 13.0082426071166992
  1.3492325544357300  6.4116711616516113 13.4211044311523438
  3.0060162544250488  8.9420146942138672 13.4711427688598633
  8.6540117263793945  8.8435249328613281 13.1324605941772461
  7.8692584037780762  3.6968641281127930 15.2258234024047852
  2.5131473541259766  3.8692812919616699 15.4294605255126953
  4.3151950836181641  6.0755443572998047 15.2227172851562500
  9.3973655700683594  6.2905168533325195 15.5609664916992188
  8.5340442657470703  1.5557894706726074 18.0158481597900391
  3.1747131347656250  1.4713733196258545 17.9228668212890625
  5.5867209434509277  4.1219539642333984 17.7720432281494141
 10.5066957473754883  3.7326147556304932 17.4123935699462891
  5.9649586677551270  8.9075145721435547 15.3706636428833008
 11.0210742950439453  9.0016107559204102 15.5615224838256836
  7.7850127220153809  3.0924746990203857  9.3950262069702148
  2.4938113689422607  3.1079192161560059  9.3843450546264648
  5.1396450996398926  4.8520436286926270  9.4644279479980469
  9.6502513885498047  4.8331694602966309 10.0014667510986328
 10.3869905471801758  0.2760195732116699 11.5905294418334961
  4.9826688766479492  0.3360110819339752 11.6753931045532227
  7.7352323532104492  0.1210012435913086 12.0778827667236328
  2.3600013256072998  0.0379892662167549 12.0213451385498047
  3.6515204906463623  7.3115797042846680  8.9043798446655273
  8.8928480148315430  7.4329438209533691  9.0893211364746094
  5.9335112571716309  7.3364586830139160 10.1459426879882812
 11.2976627349853516  7.1353158950805664 10.0896863937377930
  6.5385146141052246  3.3194580078125000 11.6705560684204102
  0.8684735298156738  3.2994444370269775 11.5935182571411133
  9.1548595428466797  2.7777204513549805 11.8942937850952148
  3.7224850654602051  2.7810943126678467 11.9513559341430664
  5.0152034759521484  9.6590356826782227  9.5364561080932617
 10.4605216979980469  9.6852130889892578  9.5116205215454102
  2.2199478149414062  9.4917516708374023  9.9987945556640625
  7.6162405014038086  9.6640539169311523 10.0990066528320312
  7.9971218109130859  5.6751737594604492 11.6043605804443359
  2.9066071510314941  5.4200892448425293 10.9525451660156250
  5.2990946769714355  5.5941948890686035 12.1183624267578125
 10.7842559814453125  5.6923394203186035 12.2542181015014648
  5.1213655471801758  1.9284768104553223 13.8826732635498047
 10.5259647369384766  1.9315991401672363 13.8130254745483398
  7.7673134803771973  2.1204888820648193 14.4881677627563477
  2.2826516628265381  1.8657896518707275 14.3747568130493164
  4.3401670455932617  8.3587312698364258 11.9271440505981445
  9.7477426528930664  8.1960315704345703 11.7955980300903320
  7.0384845733642578  8.1410522460937500 12.3454961776733398
  1.6715975999832153  8.0047760009765625 12.3623580932617188
  6.7224578857421875  4.6234016418457031 13.9452362060546875
  1.4139117002487183  4.5049619674682617 13.8950462341308594
  4.0825796127319336  4.3966403007507324 14.3824815750122070
  9.5265645980834961  4.4776530265808105 14.3722410202026367
 10.1330432891845703  0.4639447331428528 16.2548694610595703
  4.6392178535461426  0.5180710554122925 16.3088626861572266
  7.2906932830810547  0.6483192443847656 16.8874778747558594
  1.8040074110031128  0.5896459817886353 16.9423885345458984
  3.1200358867645264  7.0178799629211426 14.0925760269165039
  8.5539035797119141  7.0431637763977051 13.9552459716796875
  5.7807450294494629  7.1374964714050293 14.5573368072509766
 11.2460622787475586  7.0159668922424316 14.7028160095214844
  6.2365589141845703  3.1235735416412354 16.2701206207275391
  0.8405984044075012  3.0910315513610840 16.1396884918212891
  8.8277816772460938  3.0773229598999023 16.8682765960693359
  3.3410170078277588  2.8905699253082275 16.6596088409423828
  4.7309656143188477  9.7152204513549805 14.2122106552124023
 10.0963373184204102  9.7669610977172852 14.1858654022216797
  1.8807396888732910  9.2703571319580078 14.7791528701782227
  7.3969984054565430  9.3987617492675781 14.5808773040771484
  7.9541006088256836  5.5885109901428223 16.0844860076904297
  2.5094208717346191  5.3896279335021973 16.1315975189208984
  4.9710183143615723  5.5635528564453125 16.8217658996582031
 10.4320144653320312  5.4044857025146484 16.8476848602294922
  4.8736267089843750  2.3716459274291992 18.6018924713134766
 10.3748588562011719  1.9394363164901733 18.5911445617675781
  7.6754670143127441  2.1624395847320557 19.2177810668945312
  2.2985880374908447  2.1354451179504395 19.0923233032226562
  4.4315786361694336  8.3840732574462891 16.7632255554199219
  9.6421613693237305  7.9325361251831055 16.2604122161865234
  6.5922207832336426  7.9698185920715332 17.0597705841064453
  1.6220790147781372  7.6784863471984863 17.9080867767333984
  6.7672734260559082  9.2650232315063477 17.1644496917724609
  4.5202984809875488  3.6316337585449219 19.2048816680908203
  1.8846265077590942  8.3495702743530273 18.9059638977050781
  4.7483019828796387  9.6565275192260742 16.8248634338378906
  6.8955311775207520  4.7119216918945312 18.4940948486328125
  9.7860183715820312  0.0009152365382761 21.2508029937744141
 10.5297031402587891  3.2706725597381592 19.1795330047607422
