V  O 
 1.0000000000000000
    10.8729696273803711    0.0000000000000000    0.0000000000000000
     1.3628820180892944   10.0752592086791992   -4.5049557685852051
     0.0000000000000000    0.0000000000000000   31.5346927642822266
 V   O  
  28  71
Cartesian
  3.2175545692443848  8.8685588836669922  8.7388200759887695
  8.6827096939086914  8.8524665832519531  8.7338838577270508
  7.9092435836791992  3.9219260215759277 10.8321065902709961
  2.4638009071350098  3.8972518444061279 10.8296012878417969
  4.2977676391601562  6.1792778968811035 10.7476119995117188
  9.8104429244995117  6.2424716949462891 10.7469730377197266
  9.0535316467285156  1.2220911979675293 12.9799499511718750
  3.6408812999725342  1.2166883945465088 12.9277162551879883
  5.3328528404235840  3.7105507850646973 13.0493993759155273
 10.7695112228393555  3.7054102420806885 13.0353803634643555
  5.9685969352722168  8.7275037765502930 10.8522253036499023
 11.4018163681030273  8.7436628341674805 10.8675069808959961
  6.3326354026794434  1.2563966512680054 15.4289989471435547
  0.8672047853469849  1.2248746156692505 15.4418926239013672
  6.9687495231628418  6.3031134605407715 13.1690006256103516
  1.5193225145339966  6.3253235816955566 13.1496429443359375
  3.1554040908813477  8.8660230636596680 13.1965732574462891
  8.6568346023559570  8.8390722274780273 13.1780185699462891
  7.9849119186401367  3.8750092983245850 15.4127483367919922
  2.5270557403564453  3.9326927661895752 15.4462614059448242
  4.2382307052612305  6.1326045989990234 15.4621992111206055
  9.6331720352172852  6.2821116447448730 15.6196966171264648
  8.8846979141235352  1.2882796525955200 17.7206707000732422
  3.3287539482116699  1.3404952287673950 17.8204708099365234
  5.4730706214904785  4.0018472671508789 17.4252719879150391
 10.6988029479980469  3.9356024265289307 17.3856449127197266
  6.0094695091247559  8.9800395965576172 15.2502861022949219
 11.2950696945190430  9.0346612930297852 15.3930187225341797
  6.9465403556823730  4.4443469047546387  9.6152534484863281
  1.4990428686141968  4.4497108459472656  9.6053361892700195
  4.1129426956176758  4.6317534446716309 10.0473661422729492
  9.5142469406127930  4.5897064208984375 10.0489454269409180
 10.0390043258666992  0.5388622283935547 11.8995113372802734
  4.5916986465454102  0.5447027683258057 11.9193525314331055
  7.4820456504821777  0.4043249785900116 12.2870759963989258
  2.0389842987060547  0.3983883261680603 12.2929658889770508
  3.1869175434112549  7.1789388656616211  9.4750041961669922
  8.6118984222412109  7.1863355636596680  9.4622154235839844
  5.7756266593933105  7.1384325027465820 10.0727081298828125
 11.1664476394653320  7.0605845451354980 10.0629415512084961
  6.4281044006347656  3.1041905879974365 11.7858781814575195
  0.9578250646591187  3.0967462062835693 11.8083286285400391
  9.0809164047241211  2.9762022495269775 12.2353343963623047
  3.6574862003326416  2.9728195667266846 12.2508783340454102
  4.8137545585632324  9.5368909835815430  9.5355930328369141
 10.2222347259521484  9.5491895675659180  9.5057592391967773
  2.1084909439086914  9.5570650100708008  9.9476032257080078
  7.5031208992004395  9.5337429046630859  9.9669675827026367
  8.0901365280151367  5.5277647972106934 11.7954311370849609
  2.6755681037902832  5.5500574111938477 11.7959566116333008
  5.3650531768798828  5.5630955696105957 12.2345275878906250
 10.8006992340087891  5.5601663589477539 12.2356414794921875
  5.1390600204467773  1.9943600893020630 14.0560712814331055
 10.5703830718994141  1.9912326335906982 14.0461816787719727
  7.8668789863586426  2.0033545494079590 14.4987983703613281
  2.4458262920379639  2.0473651885986328 14.5131702423095703
  4.3905811309814453  8.0664005279541016 11.7686958312988281
  9.7769002914428711  8.0463552474975586 11.7949905395507812
  7.0498809814453125  8.0638294219970703 12.2072010040283203
  1.6382617950439453  8.0480270385742188 12.2318687438964844
  6.8516426086425781  4.5436820983886719 14.0313758850097656
  1.4418935775756836  4.5243291854858398 14.0583324432373047
  4.1135630607604980  4.5281682014465332 14.4972658157348633
  9.5941801071166992  4.5590758323669434 14.4771556854248047
 10.1491355895996094  0.5013337135314941 16.2845439910888672
  4.7048811912536621  0.4379008710384369 16.2543182373046875
  7.3871889114379883  0.5028421878814697 16.7102451324462891
  1.9599982500076294  0.4993107020854950 16.7080650329589844
  3.1311106681823730  7.0542511940002441 14.0467758178710938
  8.5554256439208984  7.0495352745056152 14.0271825790405273
  5.8550081253051758  7.0860471725463867 14.5079154968261719
 11.2937803268432617  7.0419273376464844 14.4714021682739258
  6.3776583671569824  2.9979321956634521 16.3009128570556641
  1.0190461874008179  3.0316345691680908 16.2684383392333984
  9.1223573684692383  3.0322132110595703 16.7662525177001953
  3.6819961071014404  3.0704543590545654 16.7351055145263672
  4.8515758514404297  9.5279874801635742 14.0889444351196289
 10.2589826583862305  9.5611162185668945 14.0328731536865234
  2.0824737548828125  9.4707841873168945 14.4669494628906250
  7.4480428695678711  9.4860086441040039 14.5252485275268555
  8.1909437179565430  5.5405216217041016 16.2137222290039062
  2.6785790920257568  5.4163537025451660 16.2187824249267578
  5.2850351333618164  5.4892439842224121 16.7423782348632812
 10.7530803680419922  5.4775838851928711 16.7514915466308594
  5.2225365638732910  1.5833448171615601 18.3566608428955078
 10.6416454315185547  1.5606094598770142 18.3233089447021484
  7.9418292045593262  1.9854675531387329 18.9291687011718750
  2.5699000358581543  1.9499421119689941 18.8623104095458984
  4.3568596839904785  7.8008980751037598 16.1428623199462891
  9.8754987716674805  8.0157918930053711 16.2075672149658203
  7.1092991828918457  7.7834177017211914 16.6643753051757812
  1.6750191450119019  7.7866425514221191 16.6438751220703125
  7.0529088973999023  9.3075037002563477 17.4693164825439453
  5.1158604621887207  3.3914344310760498 19.5898914337158203
  1.6608822345733643  9.2803068161010742 17.5584259033203125
  4.3842573165893555  9.3949775695800781 17.0921478271484375
  6.7714409828186035  4.4853901863098145 18.5060501098632812
 10.0818948745727539  0.4138559699058533 20.7367858886718750
 10.5853900909423828  3.4518311023712158 19.6017341613769531
