Ti O 
 1.0000000000000000
     8.6923570632934570    0.0000000000000000   -5.0185351371765137
     0.0000000000000000    8.6459999084472656    0.0000000000000000
     0.0000000000000000    0.0000000000000000   40.1482772827148438
 Ti  O  
  54  51
Cartesian
  1.5161330699920654  1.4406869411468506 12.5663013458251953
  1.5654262304306030  4.3474721908569336 12.5353412628173828
  1.5655547380447388  7.1809458732604980 12.5353841781616211
  5.9114966392517090  1.4408648014068604 10.0117683410644531
  5.9278650283813477  4.3235292434692383 10.0009460449218750
  5.9276103973388672  7.2045803070068359 10.0009460449218750
  2.8936538696289062  1.4409329891204834 15.0513124465942383
  2.8890094757080078  4.3253002166748047 15.0567712783813477
  2.8891327381134033  7.2027616500854492 15.0566339492797852
  7.2364349365234375  1.4409121274948120 12.5536403656005859
  7.2381334304809570  4.3208332061767578 12.5533771514892578
  7.2381067276000977  7.2072620391845703 12.5534601211547852
 -0.0622337982058525  0.0004373146803118 15.0229377746582031
 -0.0622557923197746  2.8815271854400635 15.0229740142822266
 -0.0584536679089069  5.7640299797058105 15.0127696990966797
  4.3249478340148926  0.0171727724373341 12.5532999038696289
  4.3248896598815918  2.8644320964813232 12.5533466339111328
  4.2848281860351562  5.7644023895263672 12.5077505111694336
  1.4480949640274048  1.4409562349319458 17.5612087249755859
  1.4488089084625244  4.3234200477600098 17.5604953765869141
  1.4487931728363037  7.2046351432800293 17.5605220794677734
  5.7923607826232910  1.4409179687500000 15.0519084930419922
  5.7934036254882812  4.3220748901367188 15.0526151657104492
  5.7933745384216309  7.2060260772705078 15.0525379180908203
  2.8980777263641357  1.4409698247909546 20.0752143859863281
  2.8990478515625000  4.3243813514709473 20.0765533447265625
  2.8990440368652344  7.2036528587341309 20.0765285491943359
  7.2470297813415527  1.4409574270248413 17.5665931701660156
  7.2463746070861816  4.3226337432861328 17.5666580200195312
  7.2463598251342773  7.2054142951965332 17.5666522979736328
  0.0007165109855123  0.0005338040646166 20.0730419158935547
  0.0007033855072223  2.8814859390258789 20.0730342864990234
  0.0003483896725811  5.7639789581298828 20.0729103088378906
  4.3467655181884766 -0.0001662625727477 17.5638122558593750
  4.3467631340026855  2.8821887969970703 17.5638122558593750
  4.3470840454101562  5.7639737129211426 17.5637626647949219
  1.4368598461151123  1.4409614801406860 22.5853328704833984
  1.4451643228530884  4.3218064308166504 22.5869102478027344
  1.4452054500579834  7.2062344551086426 22.5869808197021484
  5.7870984077453613  1.4409584999084473 20.0740165710449219
  5.7855691909790039  4.3252830505371094 20.0754718780517578
  5.7855806350708008  7.2027645111083984 20.0754432678222656
  2.9920372962951660  1.4408805370330811 24.9830513000488281
  2.9656591415405273  4.2858600616455078 25.0081825256347656
  2.9655699729919434  7.2422628402709961 25.0081157684326172
  7.3478989601135254  1.4409800767898560 22.4852199554443359
  7.3374605178833008  4.3218135833740234 22.4855842590332031
  7.3374800682067871  7.2062168121337891 22.4856319427490234
 -0.0010257849935442 -0.0008390078437515 25.1662883758544922
 -0.0010649006580934  2.8828237056732178 25.1662826538085938
 -0.0084585323929787  5.7640142440795898 25.1633243560791016
  4.3469014167785645 -0.0157032981514931 22.6560192108154297
  4.3469276428222656  2.8977129459381104 22.6559524536132812
  4.3269815444946289  5.7639970779418945 22.5818519592285156
  2.5491642951965332  5.7639527320861816 11.6186885833740234
  6.9408168792724609 -0.0020031053572893  9.1181325912475586
  6.9407467842102051  2.8839926719665527  9.1181278228759766
  6.9401922225952148  5.7640089988708496  9.1208086013793945
  0.0014311096165329  0.0007445935043506 17.0282783508300781
  0.0014318919274956  2.8812153339385986 17.0282726287841797
  0.0014118995750323  5.7640428543090820 17.0291080474853516
  4.3507723808288574 -0.0002772772277240 14.5152215957641602
  4.3508062362670898  2.8822517395019531 14.5153245925903320
  4.3509898185729980  5.7640194892883301 14.5200490951538086
  1.6802316904067993 -0.0009606570820324 14.0552492141723633
  1.6803294420242310  2.8829638957977295 14.0553064346313477
  1.6922163963317871  5.7639994621276855 14.0734653472900391
  6.0260949134826660 -0.0010391627438366 11.5555238723754883
  6.0262508392333984  2.8830687999725342 11.5554924011230469
  6.0291142463684082  5.7639765739440918 11.5534229278564453
  2.6367387771606445  0.0001353963598376 16.5814056396484375
  2.6367330551147461  2.8818430900573730 16.5814228057861328
  2.6377687454223633  5.7640161514282227 16.5820026397705078
  6.9834322929382324  0.0004561629611999 14.0714282989501953
  6.9833865165710449  2.8815219402313232 14.0714302062988281
  6.9810557365417480  5.7640256881713867 14.0702133178710938
 -0.0030306770931929  0.0001662625727477 22.0464630126953125
 -0.0030292863957584  2.8817939758300781 22.0464763641357422
 -0.0029111572075635  5.7640328407287598 22.0471076965332031
  4.3436903953552246 -0.0006660878425464 19.5393238067626953
  4.3436856269836426  2.8826351165771484 19.5393238067626953
  4.3435292243957520  5.7640237808227539 19.5360488891601562
  1.7108368873596191  0.0003339085087646 19.0862922668457031
  1.7108440399169922  2.8816399574279785 19.0862884521484375
  1.7110446691513062  5.7640256881713867 19.0865154266357422
  6.0567078590393066 -0.0001101500383811 16.5766792297363281
  6.0567069053649902  2.8820867538452148 16.5766754150390625
  6.0567760467529297  5.7640194892883301 16.5771408081054688
  2.6391410827636719  0.0009188104304485 21.5935516357421875
  2.6391339302062988  2.8810503482818604 21.5935554504394531
  2.6429669857025146  5.7640304565429688 21.5962963104248047
  6.9846167564392090  0.0001480195205659 19.0856475830078125
  6.9846029281616211  2.8818106651306152 19.0856437683105469
  6.9849858283996582  5.7640380859375000 19.0855808258056641
 -0.0821429491043091  0.0020150367636234 27.0688285827636719
 -0.0821456387639046  2.8799517154693604 27.0688533782958984
 -0.0784413963556290  5.7640328407287598 27.0721893310546875
  4.2591958045959473 -0.0085355043411255 24.5821018218994141
  1.7008206844329834  0.0011415313929319 24.1255588531494141
  1.7008062601089478  2.8807768821716309 24.1255397796630859
  1.7067500352859497  5.7640724182128906 24.1429824829101562
  6.0479454994201660  0.0009367940947413 21.6225280761718750
  6.0479397773742676  2.8810279369354248 21.6225414276123047
  6.0453929901123047  5.7640357017517090 21.6242465972900391
  4.2592277526855469  2.8904662132263184 24.5820789337158203
