Ti O 
 1.0000000000000000
     8.6923570632934570    0.0000000000000000   -5.0185351371765137
     0.0000000000000000    8.6459999084472656    0.0000000000000000
     0.0000000000000000    0.0000000000000000   40.1482772827148438
 Ti  O  
  54  51
Cartesian
  1.9862252473831177  1.4409420490264893 12.3813991546630859
  1.8186042308807373  4.2297096252441406 12.4620409011840820
  1.8185615539550781  7.2983417510986328 12.4620780944824219
  5.9854164123535156  1.4411193132400513 10.0627765655517578
  6.0111565589904785  4.3209500312805176 10.0455713272094727
  6.0112090110778809  7.2074208259582520 10.0455236434936523
  2.8814249038696289  1.4409959316253662 15.0602664947509766
  2.8762540817260742  4.3284468650817871 15.0553054809570312
  2.8762328624725342  7.1996593475341797 15.0552558898925781
  7.2186727523803711  1.4410185813903809 12.5722990036010742
  7.2222828865051270  4.3211650848388672 12.5682048797607422
  7.2222943305969238  7.2070226669311523 12.5682430267333984
  8.6446762084960938 -0.0025146889965981  9.9947776794433594
  8.6446790695190430  2.8848044872283936  9.9947357177734375
  8.6551437377929688  5.7640786170959473  9.9979782104492188
  4.3144249916076660  0.0022738114930689 12.6210021972656250
  4.3144459724426270  2.8798742294311523 12.6210546493530273
  4.2710385322570801  5.7639846801757812 12.4918203353881836
  1.4176236391067505  1.4409978389739990 17.5533733367919922
  1.4181709289550781  4.3222222328186035 17.5494995117187500
  1.4181942939758301  7.2059202194213867 17.5495243072509766
  5.7919058799743652  1.4409641027450562 15.0897102355957031
  5.7830681800842285  4.3281717300415039 15.0769939422607422
  5.7830433845520020  7.1998882293701172 15.0769701004028320
  2.8896660804748535  1.4409680366516113 20.0804405212402344
  2.8778896331787109  4.3164458274841309 20.0629711151123047
  2.8778922557830811  7.2116122245788574 20.0629997253417969
  7.2466320991516113  1.4409291744232178 17.5951747894287109
  7.2438983917236328  4.3220596313476562 17.5888996124267578
  7.2438831329345703  7.2059359550476074 17.5888881683349609
  8.6805801391601562  0.0014249472878873 15.0635595321655273
  8.6805830001831055  2.8806202411651611 15.0635433197021484
  8.6781759262084961  5.7639575004577637 15.0603895187377930
  4.3219614028930664  0.0017519389512017 17.5604972839355469
  4.3219609260559082  2.8802747726440430 17.5604591369628906
  4.3200445175170898  5.7639775276184082 17.5535869598388672
  1.4399855136871338  1.4409134387969971 22.5760383605957031
  1.4329843521118164  4.3167343139648438 22.5673313140869141
  1.4329849481582642  7.2112116813659668 22.5672988891601562
  5.7799019813537598  1.4409463405609131 20.0772476196289062
  5.7617979049682617  4.3206872940063477 20.0505161285400391
  5.7618279457092285  7.2073216438293457 20.0505504608154297
  2.9952359199523926  1.4407091140747070 24.8519229888916016
  3.0878200531005859  4.4040608406066895 24.8198890686035156
  3.0878884792327881  7.1234269142150879 24.8198776245117188
  7.4594578742980957  1.4408804178237915 22.2950725555419922
  7.2529530525207520  4.3776483535766602 22.3717937469482422
  7.2530150413513184  7.1503229141235352 22.3717784881591797
  0.0259740669280291  0.0051823258399963 25.1922760009765625
  0.0260002296417952  2.8767249584197998 25.1922073364257812
  0.0284065362066031  5.7638669013977051 25.1728839874267578
  4.3610224723815918  8.6035375595092773 22.7029399871826172
  4.3610286712646484  2.9241602420806885 22.7029495239257812
  4.2702941894531250  5.7638168334960938 22.5910720825195312
  2.4719731807708740  5.7640690803527832 11.5409860610961914
  6.9311857223510742  0.0093693239614367  9.0950622558593750
  6.9311470985412598  2.8730194568634033  9.0950870513916016
  6.9396958351135254  5.7642178535461426  9.0903158187866211
  8.6670503616333008  0.0021638344042003 11.9845781326293945
  8.6670436859130859  2.8799307346343994 11.9845228195190430
  8.6648159027099609  5.7641277313232422 11.9872579574584961
  4.3418722152709961  8.6382570266723633 14.5782108306884766
  4.3418936729431152  2.8897442817687988 14.5782775878906250
  4.3346867561340332  5.7640800476074219 14.4940128326416016
  1.6583557128906250  0.0358003191649914 13.9972753524780273
  1.6583913564682007  2.8463354110717773 13.9972562789916992
  1.6574293375015259  5.7641344070434570 14.0297069549560547
  5.9986152648925781 -0.0027252191212028 11.5801458358764648
  5.9986128807067871  2.8848061561584473 11.5801620483398438
  6.0015287399291992  5.7641820907592773 11.5750045776367188
  2.5999846458435059  8.6428432464599609 16.5732536315917969
  2.5999376773834229  2.8851530551910400 16.5732612609863281
  2.6040427684783936  5.7640948295593262 16.5700111389160156
  6.9661130905151367 -0.0001041842988343 14.0916423797607422
  6.9661369323730469  2.8821253776550293 14.0916213989257812
  6.9657163619995117  5.7640857696533203 14.0835742950439453
  8.6838274002075195  0.0058469441719353 17.0381431579589844
  8.6838483810424805  2.8760790824890137 17.0381145477294922
  8.6757135391235352  5.7640185356140137 17.0367412567138672
  4.3287053108215332  0.0065298052504659 19.5338249206542969
  4.3286771774291992  2.8754293918609619 19.5337924957275391
  4.3136625289916992  5.7640681266784668 19.5175704956054688
  1.6908866167068481  0.0069336597807705 19.0855712890625000
  1.6908628940582275  2.8750770092010498 19.0855560302734375
  1.6852811574935913  5.7640872001647949 19.0737590789794922
  6.0512247085571289  8.6424131393432617 16.6058349609375000
  6.0512700080871582  2.8854675292968750 16.6058387756347656
  6.0442366600036621  5.7640590667724609 16.5958385467529297
  2.6773247718811035  0.0077733593061566 21.6182346343994141
  2.6773345470428467  2.8741481304168701 21.6182537078857422
  2.6040811538696289  5.7639923095703125 21.5644931793212891
  7.0204548835754395  8.6440801620483398 19.1227302551269531
  7.0204620361328125  2.8837821483612061 19.1227111816406250
  7.0168418884277344  5.7640242576599121 19.1131229400634766
  8.5485496520996094  8.5804491043090820 22.2671432495117188
  8.5485534667968750  2.9474396705627441 22.2669372558593750
  8.5600748062133789  5.7639465332031250 22.1035480499267578
  4.2222328186035156  8.6396274566650391 24.7678794860839844
  1.6818689107894897  8.6220378875732422 24.1266975402832031
  1.6818981170654297  2.9056811332702637 24.1267223358154297
  1.6871272325515747  5.7639546394348145 24.1176662445068359
  6.0084552764892578  0.0109284576028585 21.6237583160400391
  6.0084390640258789  2.8710544109344482 21.6237373352050781
  5.9605965614318848  5.7639985084533691 21.5740737915039062
  4.2221765518188477  2.8877947330474854 24.7679023742675781
