Co O 
 1.0000000000000000
     9.8752183914184570    0.0000000000000000    0.0000000000000000
     0.0000000000000000   10.2948179244995117   -2.8146429061889648
     0.0000000000000000    0.0000000000000000   33.7757110595703125
 Co  O  
  32  58
Cartesian
  5.0290660858154297  2.6441762447357178 11.3473777770996094
  9.8615913391113281  2.5785927772521973 11.3789615631103516
  4.9856643676757812  7.7750234603881836 11.2188024520874023
  0.0432119779288769  7.8074054718017578 11.2526578903198242
  2.3677303791046143  2.6340756416320801 12.6661176681518555
  7.4257454872131348  2.5643084049224854 12.5928878784179688
  2.3514487743377686  7.7868094444274902  9.9587945938110352
  7.2637567520141602  7.7972421646118164  9.9454860687255859
  4.9284586906433105  2.5631139278411865 14.0580387115478516
  0.0179594662040472  2.5873711109161377 14.0621452331542969
  4.9192409515380859  7.7345042228698730 14.0778379440307617
  9.8706703186035156  7.7357549667358398 14.0626926422119141
  2.4446485042572021  2.5648143291473389 15.4917984008789062
  7.4172706604003906  2.5822496414184570 15.4923791885375977
  2.4375119209289551  7.7376914024353027 12.6702213287353516
  7.3780217170715332  7.7156810760498047 12.6794567108154297
  4.9165625572204590  2.5451574325561523 16.9340744018554688
  9.8714075088500977  2.5729284286499023 16.8893070220947266
  4.9236488342285156  7.7070012092590332 16.9095458984375000
  0.0101944841444492  7.7344341278076172 16.8800792694091797
  2.4586436748504639  2.5617754459381104 18.2688884735107422
  7.3917694091796875  2.5534453392028809 18.2479362487792969
  2.4493608474731445  7.7110085487365723 15.4629983901977539
  7.4098744392395020  7.7209815979003906 15.5028371810913086
  4.9501547813415527  2.5031523704528809 19.7107734680175781
  0.0378628708422184  2.5331463813781738 19.6683540344238281
  4.8929009437561035  7.7238321304321289 19.5960712432861328
  0.0870229899883270  7.6325898170471191 19.6382675170898438
  2.3432881832122803  2.4983799457550049 20.9953784942626953
  7.3172984123229980  2.5914001464843750 20.9194450378417969
  2.4772093296051025  7.7255120277404785 18.3919162750244141
  7.3025054931640625  7.6548829078674316 18.2910118103027344
  8.2353982925415039  1.7316167354583740 11.3130483627319336
  3.3014194965362549  8.6246433258056641 11.2055253982543945
  8.2731084823608398  8.5575151443481445 11.2548093795776367
  4.0556502342224121  3.4327731132507324 12.6661062240600586
  9.0176467895507812  3.4070043563842773 12.6731386184692383
  0.8520523905754089  1.6891585588455200 12.6799802780151367
  5.7861461639404297  1.6553356647491455 12.6792659759521484
  0.8339121937751770  8.5314922332763672  9.8975858688354492
  5.7605190277099609  8.5437545776367188  9.8603982925415039
  1.6367312669754028  3.3772695064544678 11.3235359191894531
  6.5662708282470703  3.4081110954284668 11.2821750640869141
  1.5990440845489502  6.7844457626342773 11.2202882766723633
  6.5949563980102539  6.8043389320373535 11.2573986053466797
  3.2752723693847656  1.6878255605697632 14.0009956359863281
  8.2124862670898438  1.7295773029327393 14.0603742599487305
  3.3226892948150635  8.6140356063842773 14.0895290374755859
  8.2433261871337891  8.5607748031616211 14.0403661727905273
  4.1182250976562500  3.4254121780395508 15.4832258224487305
  9.0381278991699219  3.3763411045074463 15.4941768646240234
  4.1213545799255371  6.8226890563964844 12.6852121353149414
  9.0477962493896484  6.8751358985900879 12.6461315155029297
  0.7791492938995361  1.7370173931121826 15.4808082580566406
  5.7768115997314453  1.7366064786911011 15.4278640747070312
  0.8234076499938965  8.5805377960205078 12.7073898315429688
  5.7847080230712891  8.6073760986328125 12.6591949462890625
  1.5823888778686523  3.4508566856384277 14.0532712936401367
  6.5885839462280273  3.4071054458618164 14.0618371963500977
  1.5874780416488647  6.8570003509521484 14.0800104141235352
  6.5778317451477051  6.8555674552917480 14.0261840820312500
  3.2477993965148926  1.7099617719650269 16.9499626159667969
  8.2297611236572266  1.7235696315765381 16.8715496063232422
  3.3060898780822754  8.5750827789306641 16.9610023498535156
  8.2228374481201172  8.6098451614379883 16.9477252960205078
  4.0521016120910645  3.4385404586791992 18.3203125000000000
  9.1115684509277344  3.4263017177581787 18.3365917205810547
  4.1387562751770020  6.8844265937805176 15.5099983215332031
  9.0873470306396484  6.8805441856384277 15.4886426925659180
  0.8474806547164917  1.7305183410644531 18.2706146240234375
  5.7190065383911133  1.7107567787170410 18.2620677947998047
  0.7574270367622375  8.5445775985717773 15.5062885284423828
  5.7048902511596680  8.5312957763671875 15.4710474014282227
  1.6153041124343872  3.4131457805633545 16.9366855621337891
  6.6230030059814453  3.4431655406951904 16.8703804016113281
  1.6060657501220703  6.8640279769897461 16.9370384216308594
  6.5270218849182129  6.8501348495483398 16.8928737640380859
  3.2779717445373535  1.7345825433731079 19.7119884490966797
  8.2625789642333984  1.7115083932876587 19.7074432373046875
  3.3390753269195557  8.5542430877685547 19.6533393859863281
  4.0737452507019043  6.8749914169311523 18.2723960876464844
  9.0071706771850586  6.8809943199157715 18.3329772949218750
  0.8201512694358826  1.7551237344741821 21.0753612518310547
  5.7558283805847168  1.7329061031341553 21.0956306457519531
  0.8175693154335022  8.6094713211059570 18.2920360565185547
  5.7944526672363281  8.6101856231689453 18.2656993865966797
  1.6240807771682739  3.4699642658233643 19.7048149108886719
  6.6030516624450684  3.4982459545135498 19.7307281494140625
  1.6014051437377930  6.9339838027954102 19.6532211303710938
  6.5766668319702148  6.9149575233459473 19.6472053527832031
