Co O 
 1.0000000000000000
     9.8752183914184570    0.0000000000000000    0.0000000000000000
     0.0000000000000000   10.2948179244995117   -2.8146429061889648
     0.0000000000000000    0.0000000000000000   33.7757110595703125
 Co  O  
  32  58
Cartesian
  5.3087921142578125  3.1064388751983643 11.3558263778686523
  0.1034694761037827  2.3087515830993652 11.3642759323120117
  4.8442683219909668  7.7733063697814941 11.2264890670776367
  9.7873296737670898  7.7306365966796875 11.2440681457519531
  2.4327354431152344  2.5051348209381104 12.6499233245849609
  7.5441412925720215  2.6099007129669189 12.6009206771850586
  2.0620884895324707  7.9625468254089355  9.9696083068847656
  7.0035185813903809  8.0777006149291992  9.9512042999267578
  4.9717593193054199  2.5897188186645508 14.0209875106811523
  0.0405790470540524  2.5516126155853271 14.1197919845581055
  4.9397187232971191  7.7577652931213379 14.0517997741699219
  0.0114290835335851  7.7256231307983398 14.1042213439941406
  2.4793241024017334  2.5845997333526611 15.4736719131469727
  7.4262628555297852  2.5703990459442139 15.4603986740112305
  2.4215452671051025  7.7308487892150879 12.7071294784545898
  7.3760557174682617  7.7629780769348145 12.6804351806640625
  4.9507722854614258  2.5780189037322998 16.8583316802978516
  0.0088447388261557  2.5418350696563721 16.9129180908203125
  4.9861707687377930  7.7877197265625000 16.8452453613281250
  0.0137453163042665  7.6650757789611816 16.9491710662841797
  2.4331092834472656  2.5489070415496826 18.2633666992187500
  7.3840556144714355  2.5541477203369141 18.2890872955322266
  2.4845356941223145  7.7128486633300781 15.5301399230957031
  7.4172039031982422  7.7344923019409180 15.4788331985473633
  4.8613438606262207  2.6344184875488281 19.6776485443115234
  9.8193922042846680  2.4931004047393799 19.7436332702636719
  5.0579500198364258  8.0575475692749023 19.5986347198486328
  0.4032689332962036  6.9660625457763672 19.4544925689697266
  2.2118835449218750  2.1807346343994141 21.0431270599365234
  6.8371472358703613  2.1525881290435791 20.9544525146484375
  2.6375761032104492  7.6856431961059570 18.3990650177001953
  7.3719367980957031  7.8102698326110840 18.3142719268798828
  8.4491376876831055  1.5811504125595093 11.2473526000976562
  3.2210960388183594  8.6690740585327148 11.1923589706420898
  8.1986608505249023  8.6875391006469727 11.1955595016479492
  4.0203285217285156  3.5001697540283203 12.5403337478637695
  9.1806840896606445  3.5069391727447510 12.6718034744262695
  0.8924722075462341  1.4468843936920166 12.8527956008911133
  5.8736720085144043  1.6924846172332764 12.5642461776733398
  0.4316696822643280  8.2880706787109375  9.4973049163818359
  5.3587183952331543  8.3698186874389648  9.4942922592163086
  1.6981287002563477  2.8270380496978760 10.9452018737792969
  6.9172577857971191  3.6675040721893311 11.1575002670288086
  1.5373041629791260  6.7322854995727539 11.3188819885253906
  6.4766697883605957  6.7987170219421387 11.2698822021484375
  3.3416309356689453  1.6448401212692261 14.0673589706420898
  8.2535324096679688  1.6364593505859375 14.0394430160522461
  3.2662935256958008  8.6629085540771484 14.0935297012329102
  8.2533750534057617  8.6708154678344727 14.0853796005249023
  4.1422219276428223  3.5169303417205811 15.4399633407592773
  9.0562868118286133  3.4942126274108887 15.5032157897949219
  4.0811629295349121  6.8160066604614258 12.6572437286376953
  9.0202960968017578  6.8119678497314453 12.6815567016601562
  0.8417019844055176  1.6140574216842651 15.5205564498901367
  5.7658395767211914  1.6655166149139404 15.4274263381958008
  0.8538726568222046  8.7061843872070312 12.7820262908935547
  5.7990789413452148  8.7455644607543945 12.7370529174804688
  1.5968039035797119  3.5388338565826416 14.1592273712158203
  6.6354579925537109  3.5190815925598145 14.0090246200561523
  1.6571637392044067  6.7827634811401367 14.1182098388671875
  6.5883421897888184  6.8118400573730469 14.0622825622558594
  3.3211643695831299  1.6524208784103394 16.8578109741210938
  8.2206296920776367  1.6143988370895386 16.8873710632324219
  3.3035843372344971  8.6626291275024414 16.9247875213623047
  8.2948360443115234  8.6517333984375000 16.8922843933105469
  4.0773200988769531  3.5337681770324707 18.2795600891113281
  9.0398950576782227  3.4672987461090088 18.3212051391601562
  4.1314640045166016  6.8206319808959961 15.4769239425659180
  9.0627756118774414  6.7758727073669434 15.5105018615722656
  0.8832448124885559  1.5429323911666870 18.1978588104248047
  5.7756996154785156  1.6044697761535645 18.2269210815429688
  0.8353968262672424  8.6136236190795898 15.5766639709472656
  5.7790970802307129  8.7070474624633789 15.4272060394287109
  1.6421673297882080  3.5080890655517578 16.8902816772460938
  6.5984830856323242  3.4959146976470947 16.8689670562744141
  1.7063030004501343  6.7608160972595215 16.9783840179443359
  6.5330119132995605  6.7908940315246582 16.7976703643798828
  3.2827138900756836  1.6054573059082031 19.6640110015869141
  8.1842594146728516  1.6314181089401245 19.8015327453613281
  3.5164117813110352  8.7671499252319336 19.7055397033691406
  4.2823233604431152  6.8299670219421387 18.3017425537109375
  8.8765573501586914  6.7260522842407227 18.4058189392089844
  0.5620448589324951  1.8516159057617188 21.4198894500732422
  5.0692691802978516  2.2439382076263428 21.4161300659179688
  0.8562752008438110  8.4590148925781250 18.5296707153320312
  5.8490672111511230  8.9085035324096680 18.1077537536621094
  1.5671409368515015  3.4696304798126221 19.6907501220703125
  6.4861750602722168  3.5595598220825195 19.6208496093750000
  2.0399675369262695  6.6405310630798340 19.8176822662353516
  6.6310915946960449  7.5143980979919434 20.0280437469482422
