Zn O 
 1.0000000000000000
    10.2027044296264648    0.0000000000000000   -1.5765329599380493
     7.0872220993041992    4.6989479064941406   -1.5765329599380493
     0.0000000000000000    0.0000000000000000   39.1328506469726562
 Zn  O  
  24  24
Cartesian
  8.4049243927001953  4.3464751243591309 12.0883703231811523
  3.6801142692565918  1.2138463258743286 15.3134565353393555
  6.0425190925598145  2.7801606655120850 16.9619712829589844
  8.8850021362304688  0.3524727821350098 15.1952323913574219
 11.2474069595336914  1.9187872409820557 16.8437480926513672
 13.6098117828369141  3.4851016998291016 11.9701471328735352
  8.4566726684570312  0.9985029697418213 11.9341354370117188
 10.8190774917602539  2.5648174285888672 13.5826892852783203
 13.1814832687377930  4.1311316490173340 15.2312049865722656
  6.4708480834960938  2.1341307163238525 13.7009134292602539
  8.8332529067993164  3.7004449367523193 15.3494281768798828
  4.1084432601928711  0.5678161978721619 18.5745143890380859
  8.4049243927001953  4.3464751243591309 18.6105251312255859
  3.6801142692565918  1.2138463258743286 21.8355712890625000
  6.0425190925598145  2.7801606655120850 23.4841251373291016
  8.8850021362304688  0.3524727821350098 21.7173480987548828
 11.2474069595336914  1.9187872409820557 23.3659019470214844
 13.6098117828369141  3.4851016998291016 18.4923019409179688
  8.4566726684570312  0.9985029697418213 18.4562892913818359
 10.8190774917602539  2.5648174285888672 20.1048450469970703
 13.1814832687377930  4.1311316490173340 21.7533588409423828
  6.4708480834960938  2.1341307163238525 20.2230682373046875
  8.8332529067993164  3.7004449367523193 21.8715820312500000
  4.1084432601928711  0.5678161978721619 25.0966682434082031
 10.3936700820922852  1.3494439125061035 12.0860004425048828
 12.7560749053955078  2.9157583713531494 13.7345151901245117
 15.1184864044189453  4.4820775985717773 15.3830680847167969
  6.8962564468383789  3.3495042324066162 15.1976022720336914
  2.1714394092559814  0.2168705463409424 18.4226512908935547
  4.5338516235351562  1.7831896543502808 13.5490484237670898
  7.5998950004577637  0.4337458014488220 13.6985435485839844
  9.9623003005981445  2.0000603199005127 15.3470582962036133
 12.3247051239013672  3.5663747787475586 16.9956130981445312
  9.6900310516357422  4.2652020454406738 13.5850601196289062
  4.9652209281921387  1.1325733661651611 16.8101444244384766
 10.3936700820922852  1.3494439125061035 18.6081542968750000
 12.7560749053955078  2.9157583713531494 20.2566699981689453
 15.1184864044189453  4.4820775985717773 21.9052219390869141
  6.8962564468383789  3.3495042324066162 21.7197570800781250
  2.1714394092559814  0.2168705463409424 24.9448051452636719
  4.5338516235351562  1.7831896543502808 20.0712032318115234
  7.5998950004577637  0.4337458014488220 20.2206592559814453
  9.9623003005981445  2.0000603199005127 21.8692131042480469
  7.3276262283325195  2.6988878250122070 18.4586601257324219
  9.6900310516357422  4.2652020454406738 20.1072139739990234
  4.9652209281921387  1.1325733661651611 23.3322601318359375
 11.0665988922119141  4.3384213447570801 25.4792442321777344
 11.0925598144531250  2.6589043140411377 25.4018974304199219
