Zn O 
 1.0000000000000000
    10.2027044296264648    0.0000000000000000   -1.5765329599380493
     7.0872220993041992    4.6989479064941406   -1.5765329599380493
     0.0000000000000000    0.0000000000000000   39.1328506469726562
 Zn  O  
  24  24
Cartesian
  7.9340715408325195  4.0623373985290527 12.4782447814941406
  3.6741540431976318  1.0842896699905396 15.2436637878417969
  5.9935398101806641  2.7369043827056885 16.9513454437255859
  8.9007816314697266  0.3831817805767059 15.2671604156494141
 11.2343921661376953  1.9266248941421509 16.9163684844970703
 13.8982248306274414  3.4689481258392334 12.2854785919189453
  8.4788389205932617  1.6567474603652954 12.2878541946411133
 10.8398246765136719  2.4975299835205078 13.5934801101684570
 13.1460027694702148  4.0979242324829102 15.3188238143920898
  6.3931365013122559  2.1403138637542725 13.7059965133666992
  8.8441143035888672  3.6918032169342041 15.3935279846191406
  4.0742106437683105  0.5841044783592224 18.6142635345458984
  8.3565921783447266  4.3126745223999023 18.6177425384521484
  3.5785615444183350  1.1734620332717896 21.8821468353271484
  5.6886491775512695  2.7873995304107666 23.2432308197021484
  8.7946519851684570  0.4176812767982483 21.7792663574218750
 11.2091245651245117  1.8330820798873901 23.3483219146728516
 13.5535297393798828  3.5003666877746582 18.6202354431152344
  8.4329433441162109  0.9740347266197205 18.4900150299072266
 10.7919015884399414  2.5639936923980713 20.1545429229736328
 13.2471618652343750  4.1687288284301758 21.9264984130859375
  6.4123306274414062  2.1348342895507812 20.2031917572021484
  8.7507925033569336  3.7021334171295166 21.9027404785156250
  3.9550735950469971  0.3706563115119934 25.1018848419189453
 10.2991466522216797  1.1011899709701538 12.3072710037231445
 12.7434206008911133  2.8915727138519287 13.7894182205200195
 15.0906000137329102  4.4601573944091797 15.4079723358154297
  6.8880577087402344  3.3693852424621582 15.2129144668579102
  2.1452691555023193  0.2211517095565796 18.4553794860839844
  4.5282025337219238  1.7828062772750854 13.5847358703613281
  7.5684862136840820  0.4944704771041870 13.7475500106811523
  9.9697933197021484  2.0112011432647705 15.4155693054199219
 12.2966623306274414  3.5774562358856201 17.0914936065673828
  9.6524362564086914  4.1840181350708008 13.5795879364013672
  4.9166393280029297  1.0934242010116577 16.8252468109130859
 10.3692331314086914  1.3349026441574097 18.6664943695068359
 12.7244367599487305  2.9248671531677246 20.4166412353515625
 15.1354961395263672  4.5082387924194336 21.9159755706787109
  6.8407201766967773  3.3420519828796387 21.7055492401123047
  2.1121616363525391  0.3297817707061768 24.8195075988769531
  4.4675860404968262  1.7871756553649902 20.1361026763916016
  7.5524711608886719  0.4441709816455841 20.2414379119873047
  9.9080209732055664  2.0317897796630859 21.9176998138427734
  7.2838029861450195  2.6706328392028809 18.4458408355712891
  9.6343793869018555  4.2295618057250977 20.1098079681396484
  4.8969311714172363  1.0754300355911255 23.3914890289306641
 12.7352304458618164  4.0723061561584473 23.9116878509521484
 11.5232629776000977  3.2993156909942627 24.5202598571777344
