Mn O 
 1.0000000000000000
     8.1728658676147461    0.0000000000000000   -1.5986770391464233
    -6.2965831756591797    5.2104492187500000   -1.5986770391464233
     0.0000000000000000    0.0000000000000000   38.3682479858398438
 Mn  O  
  24  22
Cartesian
  0.0073195579461753 -0.1175986379384995 15.2641057968139648
  0.8760109543800354  2.6527979373931885 13.8991861343383789
  2.7461678981781006 -0.1152318939566612 13.8299217224121094
  3.7271084785461426  2.6113085746765137 12.1548538208007812
  5.5041165351867676  0.0105473557487130 12.3073158264160156
 -1.6973974704742432  2.6205682754516602 12.3336009979248047
  0.0055409586057067 -0.0016275357920676 18.6205787658691406
  0.9311476945877075  2.5825104713439941 17.0409774780273438
  2.6915419101715088 -0.0019412570400164 17.0236110687255859
  3.6290826797485352  2.6056220531463623 15.4404325485229492
  5.4599056243896484  0.0363465808331966 15.4867143630981445
 -1.7866579294204712  2.6117105484008789 15.5005722045898438
 -0.0113870268687606 -0.0360223874449730 21.8145332336425781
  0.9399270415306091  2.5998256206512451 20.2034015655517578
  2.7573921680450439  0.0008809306309558 20.2800445556640625
  3.6965434551239014  2.6050920486450195 18.6636657714843750
  5.4438180923461914  0.0012511330423877 18.6814956665039062
 -1.7779911756515503  2.6270670890808105 18.6615123748779297
 -0.0553617812693119 -0.0057042432017624 24.9926338195800781
  0.8471739888191223  2.5866341590881348 23.3722972869873047
  2.6986062526702881  0.1197746768593788 23.4799747467041016
  3.5997648239135742  2.5945911407470703 21.9454746246337891
  5.4390192031860352  0.1154220774769783 22.0403957366943359
 -1.7239010334014893  2.5592443943023682 21.8035507202148438
 -0.0317305177450180  3.9335935115814209 12.2961826324462891
 -0.9573217034339905  1.3618581295013428 13.8720521926879883
  3.0526733398437500  3.9165275096893311 10.8377285003662109
  4.4142308235168457  1.2836921215057373 13.7355794906616211
 -2.6093845367431641  3.9107465744018555 13.9113674163818359
  0.0499501042068005  3.9198343753814697 15.4819850921630859
 -0.9149322509765625  1.3107066154479980 17.0461673736572266
  1.8098092079162598  1.3320846557617188 15.3862342834472656
  2.7205843925476074  3.8554172515869141 13.8443059921264648
  4.5383148193359375  1.3051413297653198 17.0364418029785156
 -2.6957323551177979  3.9196929931640625 17.0697746276855469
  0.0681608393788338  3.8988494873046875 18.6568088531494141
 -0.8975520133972168  1.2906470298767090 20.2210922241210938
  1.8484716415405273  1.2905509471893311 18.6342010498046875
  2.7872538566589355  3.9052004814147949 17.0685062408447266
  4.6040716171264648  1.3553146123886108 20.2612171173095703
 -2.6569340229034424  3.8779075145721436 20.3152828216552734
  0.1122520491480827  3.8491287231445312 21.8344917297363281
 -0.8214321136474609  1.2771645784378052 23.4048213958740234
  1.7613238096237183  1.3005684614181519 21.7922172546386719
  2.9118549823760986  3.9270987510681152 20.3714447021484375
  4.2711386680603027  1.2928380966186523 23.2683010101318359
