Mn O 
 1.0000000000000000
     8.1728658676147461    0.0000000000000000   -1.5986770391464233
    -6.2965831756591797    5.2104492187500000   -1.5986770391464233
     0.0000000000000000    0.0000000000000000   38.3682479858398438
 Mn  O  
  24  22
Cartesian
  0.0056692967191339 -0.0458188131451607 15.3828973770141602
  0.9142289161682129  2.6061828136444092 13.8430624008178711
  2.6572651863098145 -0.0473322384059429 13.8516988754272461
  3.6297192573547363  2.6479790210723877 12.1951894760131836
  5.4949932098388672  0.0053770793601871 12.2867279052734375
 -1.7420701980590820  2.6094112396240234 12.2946624755859375
 -0.0016788308275864  0.0000561686392757 18.6479225158691406
  0.9354304671287537  2.6050798892974854 17.0514545440673828
  2.7214457988739014  0.0011288959067315 17.0513782501220703
  3.6597716808319092  2.6081752777099609 15.4574279785156250
  5.4589371681213379 -0.0061864703893661 15.4519844055175781
 -1.7748068571090698  2.6008100509643555 15.4502201080322266
 -0.0103814788162708  0.0052657839842141 21.8500251770019531
  0.9270074367523193  2.6090126037597656 20.2525787353515625
  2.7241575717926025 -0.0023761210031807 20.2478141784667969
  3.6620900630950928  2.6010425090789795 18.6437778472900391
  5.4509630203247070 -0.0027959791477770 18.6502990722656250
 -1.7830227613449097  2.6031072139739990 18.6487865447998047
 -0.0395460017025471  0.0046725743450224 25.0264186859130859
  0.8945208191871643  2.5971858501434326 23.4122486114501953
  2.7835106849670410  0.0579946935176849 23.4473381042480469
  3.6856517791748047  2.5552461147308350 21.9112758636474609
  5.4465298652648926  0.0437417700886726 21.9190349578857422
 -1.7532882690429688  2.5975027084350586 21.8541831970214844
 -0.0074170473963022  3.9069399833679199 12.2664480209350586
 -0.9328947067260742  1.3360627889633179 13.8443384170532227
  2.8646428585052490  3.9270787239074707 10.7450084686279297
  4.5454301834106445  1.3015152215957642 13.8478937149047852
 -2.6699190139770508  3.9006800651550293 13.8487119674682617
  0.0476604439318180  3.9074268341064453 15.4542913436889648
 -0.8941266536712646  1.3061885833740234 17.0583839416503906
  1.8395105600357056  1.3173038959503174 15.4468946456909180
  2.7671477794647217  3.8934679031372070 13.8663282394409180
  4.5538616180419922  1.3017092943191528 17.0518932342529297
 -2.6804940700531006  3.9100883007049561 17.0536880493164062
  0.0455091372132301  3.9055032730102539 18.6469287872314453
 -0.8969391584396362  1.3052504062652588 20.2526473999023438
  1.8335673809051514  1.3011404275894165 18.6526069641113281
  2.7721998691558838  3.9097683429718018 17.0550975799560547
  4.5599722862243652  1.3226149082183838 20.2432651519775391
 -2.6870114803314209  3.8929791450500488 20.2626266479492188
  0.0744126513600349  3.8722746372222900 21.8570728302001953
 -0.8473023772239685  1.3075460195541382 23.4334259033203125
  1.8278346061706543  1.3101978302001953 21.8552055358886719
  2.7879812717437744  3.9054534435272217 20.2585697174072266
  4.4618368148803711  1.2819801568984985 23.3573246002197266
