Cu O 
 1.0000000000000000
     8.8076295852661133    0.0000000000000000    3.3388979434967041
     5.5603899955749512   10.3115978240966797    5.8186440467834473
     0.0000000000000000    0.0000000000000000   35.2668304443359375
 Cu  O  
  48  44
Cartesian
  1.3971946239471436  2.5473170280456543 14.6685638427734375
  4.1819953918457031  7.7076487541198730 17.5401802062988281
  7.2628622055053711  2.5847802162170410 20.8201179504394531
 10.0407629013061523  7.7377195358276367 23.7318878173828125
  4.3299779891967773  2.5772988796234131 17.7269248962402344
  7.1101927757263184  7.7353363037109375 20.6421470642089844
  5.8709077835083008  0.0022173030301929 19.3622531890869141
  8.6519813537597656  5.1549496650695801 22.2779464721679688
  2.9459736347198486 -0.0006267389399000 16.2894687652587891
  5.7177038192749023  5.1603274345397949 19.2036037445068359
  0.0079439096152782 -0.0112605746835470 13.2487840652465820
  2.7865619659423828  5.1934370994567871 16.1419277191162109
  7.2716369628906250  2.6007633209228516 17.8091201782226562
 10.0406970977783203  7.7576613426208496 20.7156066894531250
  4.2986989021301270  2.5632054805755615 14.8275547027587891
  7.0889921188354492  7.7196793556213379 17.7404365539550781
  1.3911246061325073  2.5752012729644775 17.6067314147949219
  4.1691489219665527  7.7302227020263672 20.5236644744873047
  5.9041028022766113  0.0061497339047492 16.4382648468017578
  8.6668138504028320  5.1780915260314941 19.3428573608398438
  2.9673483371734619 -0.0591419637203217 13.3928079605102539
  5.7580347061157227  5.1330647468566895 16.2920303344726562
  0.0044366260990500  0.0046275360509753 16.1570968627929688
  2.7859535217285156  5.1582331657409668 19.0761070251464844
  1.3890718221664429  2.5805921554565430 20.5694351196289062
  4.1714367866516113  7.7371740341186523 23.4711360931396484
  7.2891316413879395  2.5925986766815186 26.6874732971191406
 10.0592241287231445  7.7477169036865234 29.5932426452636719
  4.3161878585815430  2.5550448894500732 23.7059440612792969
  7.1075172424316406  7.7097477912902832 26.6180877685546875
  5.8297986984252930  0.0227261427789927 25.2230148315429688
  8.6204795837402344  5.2149734497070312 28.1222438812255859
  2.9209988117218018 -0.0222948100417852 22.1721858978271484
  5.6837086677551270  5.1496343612670898 25.0767841339111328
 -0.0057598641142249 -0.0024337433278561 19.1000499725341797
  2.7757537364959717  5.1511693000793457 22.0190525054931641
  7.2578468322753906  2.5784983634948730 23.7881221771240234
 10.0380210876464844  7.7320594787597656 26.6915435791015625
  4.3249626159667969  2.5710139274597168 20.6949272155761719
  7.1074495315551758  7.7296781539916992 23.6018123626708984
  1.3829982280731201  2.6084535121917725 23.5076980590820312
  4.1585874557495117  7.7597517967224121 26.4546146392822266
  5.8701214790344238 -0.0045315348543227 22.3114490509033203
  8.6418495178222656  5.1564188003540039 25.2255821228027344
  2.9358460903167725  0.0008507068268955 19.2371082305908203
  5.7169175148010254  5.1535863876342773 22.1528034210205078
 -0.0063661471940577 -0.0376376435160637 22.0342197418212891
  2.7722494602203369  5.1670308113098145 24.9273796081542969
  1.4672876596450806  1.2657673358917236 16.1619930267333984
  4.2478089332580566  6.4202728271484375 19.0933227539062500
 10.1210803985595703  6.4072413444519043 19.3631610870361328
  4.4027900695800781  1.2907625436782837 19.2297725677490234
  7.1844539642333984  6.4468584060668945 22.1391620635986328
 10.1204977035522461  3.9014797210693359 19.4695644378662109
 12.8777656555175781  9.0643272399902344 22.3643321990966797
  7.1303362846374512  3.8721659183502197 16.4587554931640625
  9.9234523773193359  9.0596742630004883 19.3657131195068359
  4.2481293678283691  3.8668868541717529 19.2200412750244141
  7.0250968933105469  9.0211229324340820 22.1315193176269531
  7.3389978408813477  1.2932221889495850 19.3462142944335938
 10.1216449737548828  6.4514474868774414 22.2683258056640625
  4.4275112152099609  1.2605575323104858 16.2888813018798828
  7.1929488182067871  6.4158625602722168 19.1932754516601562
  4.2636194229125977  6.4503593444824219 16.1537265777587891
 10.1197376251220703  3.8691349029541016 22.4253749847412109
 12.9013338088989258  9.0187683105468750 25.3326015472412109
  7.1859283447265625  3.8873407840728760 19.3760128021240234
  9.9379863739013672  8.9893894195556641 22.2562446594238281
  4.2160186767578125  3.8765981197357178 16.2635040283203125
  7.0239849090576172  9.0851640701293945 19.1683712005615234
  1.4673482179641724  1.2542403936386108 22.0454654693603516
  4.2704577445983887  6.4030904769897461 24.9693565368652344
  7.3396902084350586  1.2889363765716553 22.2950496673583984
 10.1231145858764648  6.4463014602661133 25.2021713256835938
  4.4574952125549316  1.2836281061172485 25.0562896728515625
  7.2247810363769531  6.4077019691467285 27.9679756164550781
 10.1205282211303711  3.8900768756866455 25.3529834747314453
 12.9003944396972656  9.0471181869506836 28.2403545379638672
  7.1850333213806152  3.8650164604187012 22.2853183746337891
  9.9637575149536133  9.0205497741699219 25.1945343017578125
  7.0271577835083008  9.0601844787597656 27.9705600738525391
  7.3718142509460449  1.2792197465896606 25.2515430450439453
 10.1242179870605469  6.3822488784790039 28.1653347015380859
  4.4018630981445312  1.2684324979782104 22.1390247344970703
  7.2102389335632324  6.4780158996582031 25.0774440765380859
  1.4680947065353394  1.2866767644882202 19.0896625518798828
  4.2468805313110352  6.4486422538757324 22.0011043548583984
 12.8846092224121094  9.0170593261718750 31.1799755096435547
  7.1603145599365234  3.8951947689056396 25.2261562347412109
  9.9552259445190430  9.0515575408935547 28.1404323577880859
  4.2488379478454590  3.8625516891479492 22.1688251495361328
  7.0265822410583496  9.0159454345703125 25.0653686523437500
