Cu O 
 1.0000000000000000
     8.8076295852661133    0.0000000000000000    3.3388979434967041
     5.5603899955749512   10.3115978240966797    5.8186440467834473
     0.0000000000000000    0.0000000000000000   35.2668304443359375
 Cu  O  
  48  44
Cartesian
  9.8396825790405273  2.3402333259582520 18.0457706451416016
  4.3411068916320801  7.5440468788146973 17.5775604248046875
  7.2809362411499023  2.6200585365295410 20.7865467071533203
 10.0522031784057617  7.6714611053466797 23.7365837097167969
  4.3473854064941406  2.5154263973236084 17.6890106201171875
  7.1787829399108887  7.5640692710876465 20.7273197174072266
  5.8965506553649902  0.0321289785206318 19.2490901947021484
  8.6679973602294922  5.1050996780395508 22.3177909851074219
  8.5861825942993164 10.1481027603149414 22.1193428039550781
  5.7572808265686035  5.1574077606201172 19.2330551147460938
  8.6332874298095703  0.4254942834377289 16.6850833892822266
  2.7987182140350342  5.1024580001831055 16.1351909637451172
  7.3179054260253906  2.4590287208557129 17.7798805236816406
 10.1416873931884766  7.6983308792114258 20.7625389099121094
  3.6186211109161377  2.0354063510894775 14.9659118652343750
  6.9618954658508301  8.3205165863037109 18.5017871856689453
  1.4080030918121338  2.5959312915802002 17.5462245941162109
  4.2142934799194336  7.7554597854614258 20.4956989288330078
 11.5861206054687500 10.1705999374389648 22.1744346618652344
  8.7062349319458008  5.2536849975585938 19.3141822814941406
  8.6841573715209961  9.9340496063232422 19.3146915435791016
  5.6556162834167480  4.7505464553833008 16.3876209259033203
  5.5904645919799805 10.2750759124755859 21.9159927368164062
  2.8082406520843506  5.0789575576782227 19.1209564208984375
 10.1796970367431641  2.5602474212646484 23.9684848785400391
 12.9335613250732422  7.7126293182373047 26.8373699188232422
  7.9691190719604492  3.1199464797973633 26.5490474700927734
 10.1858234405517578  7.1466598510742188 28.8319206237792969
  4.2698588371276855  2.6969516277313232 23.7349510192871094
  7.0062246322631836  7.7692542076110840 26.5715847015380859
  5.9322957992553711  0.4052470326423645 25.1276378631591797
  8.4632396697998047  5.5330634117126465 28.0192012786865234
  8.4421634674072266 10.2138195037841797 28.0192184448242188
  5.5623087882995605  5.2967724800109863 25.1595649719238281
  8.7792625427246094  0.0768028423190117 22.3940448760986328
 11.5576601028442383  5.1922402381896973 25.4177494049072266
  7.2403669357299805  2.6404573917388916 23.8258132934570312
  9.9697494506835938  7.9041471481323242 26.6061859130859375
  4.3069648742675781  2.5360212326049805 20.7279472351074219
  7.0960817337036133  7.7964911460876465 23.5976467132568359
  1.7485661506652832  2.8157422542572021 23.4690113067626953
 12.8071670532226562  7.9233436584472656 29.7563076019287109
 11.3909978866577148 10.3093280792236328 28.1001625061035156
  8.5621891021728516  5.3192362785339355 25.2146701812744141
  2.9199600219726562  0.0505506508052349 19.1968517303466797
  5.6915221214294434  5.1234083175659180 22.2655830383300781
  8.7891416549682617  0.0536142252385616 25.3798866271972656
  2.9539556503295898  4.7303342819213867 24.8298416137695312
  1.5620151758193970  1.1628044843673706 16.2442417144775391
  4.2488937377929688  6.3520174026489258 19.2229309082031250
 10.2282161712646484  6.4037985801696777 19.4042854309082031
  4.4110412597656250  1.3157885074615479 19.2284755706787109
  7.1953344345092773  6.3652224540710449 22.3049983978271484
 10.0942144393920898  3.8836779594421387 19.3104705810546875
 13.0728769302368164  9.0213642120361328 22.2088470458984375
  7.0612964630126953  3.6467521190643311 16.4605064392089844
 10.2734565734863281  9.2781085968017578 19.7577037811279297
  4.3001770973205566  3.8165423870086670 19.2040119171142578
  7.0377073287963867  8.9496002197265625 22.0488605499267578
  7.3799171447753906  1.3255474567413330 19.3175086975097656
 10.1608858108520508  6.3656120300292969 22.2885456085205078
  4.5629353523254395  1.0647621154785156 16.4081745147705078
  7.1820049285888672  6.5416412353515625 19.1076984405517578
  4.3949441909790039  6.1681323051452637 16.3337192535400391
 10.1362094879150391  3.8284051418304443 22.3925743103027344
 12.9055814743041992  9.0252342224121094 25.2648868560791016
  7.2515869140625000  3.9764692783355713 19.4069232940673828
  9.9829521179199219  8.8307867050170898 22.2641544342041016
  3.9912431240081787  3.6199052333831787 16.0650615692138672
  7.0628938674926758 10.1819915771484375 18.4720821380615234
  1.4933869838714600  1.2715628147125244 22.2044525146484375
  4.0751829147338867  6.4452028274536133 25.1261463165283203
  7.2874531745910645  1.3394868373870850 22.3109531402587891
 10.1104927062988281  6.5180997848510742 25.2844905853271484
  4.5265469551086426  1.5092704296112061 25.0547103881835938
  6.8743815422058105  6.1892743110656738 27.5762977600097656
 10.0255584716796875  3.9927339553833008 25.2698936462402344
 12.8994512557983398  9.1141271591186523 28.1108570098876953
  7.1770877838134766  3.8397521972656250 22.2870788574218750
  9.9532089233398438  9.1017751693725586 25.0296535491943359
  6.9201846122741699  9.0638990402221680 27.9298343658447266
  7.5971722602844238  1.5363366603851318 25.4500503540039062
 10.0850925445556641  5.2854118347167969 28.8606281280517578
  4.3361406326293945  1.1794984340667725 22.1079330444335938
  7.1650881767272949  6.6366071701049805 25.0692749023437500
  1.4516618251800537  1.3280528783798218 19.1223602294921875
  4.2429890632629395  6.4423794746398926 22.0701446533203125
 12.7537689208984375  9.2994556427001953 31.0003566741943359
  7.0249452590942383  4.0910897254943848 25.1061820983886719
  9.9663047790527344  8.9251832962036133 28.2261028289794922
  4.2080349922180176  3.8298778533935547 22.1967563629150391
  6.9875617027282715  9.1019802093505859 25.0460872650146484
