Co O 
 1.0000000000000000
    10.2194099426269531    0.0000000000000000    1.0029000043869019
     3.9884040355682373   11.0621862411499023    0.0783940032124519
     0.0000000000000000    0.0000000000000000   30.3740768432617188
 Co  O  
  32  68
Cartesian
  2.8681848049163818  1.4425510168075562 18.9842548370361328
  8.3265199661254883  1.0940598249435425 20.6273288726806641
  7.6052470207214355  6.7810893058776855 20.0181865692138672
 12.5029258728027344  7.1929860115051270 19.1197643280029297
 10.5225849151611328  1.7226418256759644 19.0688591003417969
  5.7558622360229492  1.3018692731857300 19.8276863098144531
  4.9661955833435059  6.9436450004577637 18.9771938323974609
 10.4153556823730469  6.4429388046264648 20.8194332122802734
  2.4624218940734863  2.4395871162414551 16.2912197113037109
  7.8256249427795410  1.9522314071655273 18.1353549957275391
  7.1126208305358887  7.7154364585876465 17.2396297454833984
 11.9912462234497070  8.1828956604003906 16.4420909881591797
 10.0130062103271484  2.6485381126403809 16.4101409912109375
  5.1445665359497070  2.2034640312194824 17.2082195281982422
  4.4710259437561035  7.9330129623413086 16.3589229583740234
  9.8242387771606445  7.4788994789123535 18.1684646606445312
  1.9401580095291138  3.3408231735229492 13.6876869201660156
  7.3057255744934082  2.8843946456909180 15.4948158264160156
  6.6121110916137695  8.6472444534301758 14.6415119171142578
 11.4789962768554688  9.1250696182250977 13.8208723068237305
  9.4867143630981445  3.5600092411041260 13.7942438125610352
  4.6181955337524414  3.1163380146026611 14.5968894958496094
  3.9267425537109375  8.8851413726806641 13.7209196090698242
  9.3013496398925781  8.4091129302978516 15.5510740280151367
  1.5311050415039062  4.2259240150451660 11.1435956954956055
  6.7728753089904785  3.8218853473663330 12.8408870697021484
  6.1423068046569824  9.6405763626098633 12.0253343582153320
 10.9908056259155273 10.0210828781127930 11.2755413055419922
  8.8140888214111328  4.5249791145324707 11.2968978881835938
  4.1187558174133301  4.0692243576049805 11.9320707321166992
 13.6484079360961914  9.8854894638061523 12.1234340667724609
  8.7952079772949219  9.3530349731445312 12.8246746063232422
  1.3695484399795532  2.1466891765594482 19.4067535400390625
  6.1681289672851562  2.6024246215820312 18.6615676879882812
  6.0722584724426270  5.9140882492065430 19.7809143066406250
 10.9735221862792969  6.3469381332397461 19.0094604492187500
  2.5014691352844238  0.2340517342090607 19.9593429565429688
  7.2550992965698242  0.5972124934196472 19.2980365753173828
  6.5528211593627930  7.9541873931884766 18.9819698333740234
 11.8539228439331055  7.5208492279052734 20.7497196197509766
  8.9146175384521484  2.3951904773712158 19.5804157257080078
  4.0351538658142090  1.8373726606369019 20.3131885528564453
  3.4373195171356201  6.1620888710021973 18.8892269134521484
  8.8160867691040039  5.6736888885498047 20.7051067352294922
  9.8615121841430664  0.4775074422359467 20.1660919189453125
  4.6051459312438965  0.9091219902038574 18.3910236358642578
  3.8690812587738037  8.1689796447753906 18.0727748870849609
  9.2311916351318359  7.7530207633972168 19.9074802398681641
 11.0522174835205078  3.0297617912292480 17.9010887145996094
  5.6687240600585938  3.4657790660858154 16.0880413055419922
  5.5716743469238281  6.8391842842102051 17.1841869354248047
 10.4106578826904297  7.2628602981567383 16.4611282348632812
  1.9257041215896606  1.1308108568191528 17.4825820922851562
  6.7741117477416992  1.5712929964065552 16.6862506866455078
  6.0430283546447754  8.8312778472900391 16.3608951568603516
 11.4018659591674805  8.4060010910034180 18.1818561553955078
  8.3329534530639648  3.2945172786712646 16.9376029968261719
  3.5025293827056885  2.7887697219848633 17.7880706787109375
  2.8696689605712891  7.0585541725158691 16.3504009246826172
  8.2231006622314453  6.5706276893615723 18.1742305755615234
  9.4839687347412109  1.3283433914184570 17.6388950347900391
  4.0876655578613281  1.7922240495681763 15.8113679885864258
  3.3597879409790039  9.0655279159545898 15.4677114486694336
  8.7132024765014648  8.6227359771728516 17.2691802978515625
 10.5262451171875000  3.9624583721160889 15.1953859329223633
  5.1726312637329102  4.4375352859497070 13.3706665039062500
  5.0370011329650879  7.7263717651367188 14.6469087600708008
  9.8833665847778320  8.1704969406127930 13.7970752716064453
  1.4423182010650635  2.0390648841857910 14.8581275939941406
  6.3135800361633301  2.4932997226715088 14.0345287322998047
  5.5137953758239746  9.7975330352783203 13.7954502105712891
 10.9274826049804688  9.3358230590820312 15.5469789505004883
  7.8426809310913086  4.1941232681274414 14.3120622634887695
  2.9305515289306641  3.7067608833312988 15.1684207916259766
 12.5685071945190430  7.9344954490661621 14.7187604904174805
  7.6788454055786133  7.4814839363098145 15.5349855422973633
  8.9483909606933594  2.2852382659912109 14.9143867492675781
  3.5568153858184814  2.7344253063201904 13.0877380371093750
 13.0323429107666016 10.0309019088745117 13.8944711685180664
  8.1913852691650391  9.5624904632568359 14.6198253631591797
 10.0368261337280273  4.9144477844238281 12.6126823425292969
  4.6034431457519531  5.3291373252868652 10.9295368194580078
  4.5196228027343750  8.5865621566772461 11.9836444854736328
  9.4057369232177734  9.0456743240356445 11.2424783706665039
 11.0929794311523438  2.9143164157867432 13.2667179107666016
  5.7260808944702148  3.3956618309020996 11.4898834228515625
  4.9511747360229492 10.6747703552246094 11.1806774139404297
 10.3745584487915039 10.2865514755249023 12.9912548065185547
  7.3577752113342285  5.1129465103149414 11.7626695632934570
  2.4980928897857666  4.6670598983764648 12.5425252914428711
 12.0767908096313477  8.7696914672851562 12.1042280197143555
  7.1719570159912109  8.3723068237304688 12.9107971191406250
  8.4127798080444336  3.1191680431365967 12.3372421264648438
  2.9954783916473389  3.6184568405151367 10.5898313522338867
 12.5001735687255859 10.9181919097900391 11.2672338485717773
  7.6162438392639160 10.4582691192626953 12.0911378860473633
  7.1387882232666016  7.1058664321899414 21.4570770263671875
  6.7872691154479980  1.6719728708267212 21.2227268218994141
 11.3087205886840820  5.4509620666503906 21.5661602020263672
  3.9999067783355713  3.1778390407562256 21.1663494110107422
