Co O 
 1.0000000000000000
    10.2194099426269531    0.0000000000000000    1.0029000043869019
     3.9884040355682373   11.0621862411499023    0.0783940032124519
     0.0000000000000000    0.0000000000000000   30.3740768432617188
 Co  O  
  32  68
Cartesian
  2.8927564620971680  1.4737328290939331 18.9845294952392578
  8.3445405960083008  1.0047547817230225 20.5677871704101562
  7.6565070152282715  6.8731412887573242 19.9578590393066406
 12.5204286575317383  7.2286252975463867 19.1419639587402344
 10.5301685333251953  1.7814484834671021 19.0632572174072266
  5.7749381065368652  1.4022095203399658 19.8024349212646484
  5.0130791664123535  6.8433685302734375 18.9320392608642578
 10.3399410247802734  6.4552769660949707 20.7321968078613281
  2.4629845619201660  2.4005866050720215 16.3348827362060547
  7.8535079956054688  2.0101146697998047 18.0791683197021484
  7.1429605484008789  7.6663150787353516 17.2240848541259766
 11.9988183975219727  8.1732702255249023 16.4956436157226562
 10.0061988830566406  2.6402564048767090 16.3940467834472656
  5.1460328102111816  2.2192413806915283 17.2173900604248047
  4.4811859130859375  7.9126305580139160 16.3824844360351562
  9.8451747894287109  7.4509515762329102 18.1454696655273438
  1.9517650604248047  3.2924706935882568 13.7000713348388672
  7.3223152160644531  2.9058890342712402 15.4744729995727539
  6.6005225181579590  8.6639709472656250 14.6383457183837891
 11.4863586425781250  9.1263875961303711 13.8889493942260742
  9.4930629730224609  3.4657156467437744 13.7253074645996094
  4.6149082183837891  3.1015701293945312 14.6069869995117188
  3.9305589199066162  8.9156360626220703 13.8146791458129883
  9.3017568588256836  8.4266872406005859 15.5364570617675781
  1.5736838579177856  4.1216769218444824 11.1417388916015625
  6.7199778556823730  3.7689416408538818 12.8442087173461914
  6.0629320144653320  9.7133731842041016 12.0134725570678711
 10.9748659133911133  9.9268732070922852 11.3075094223022461
  8.6275815963745117  4.6364235877990723 11.4003515243530273
  4.1498155593872070  4.1135320663452148 11.9771137237548828
 13.6309070587158203  9.8208494186401367 12.1092548370361328
  8.7638282775878906  9.3909349441528320 12.8975200653076172
  1.3433166742324829  2.3579456806182861 19.3536682128906250
  6.2289018630981445  2.7828743457794189 18.7000179290771484
  6.0758495330810547  5.8269829750061035 19.8242530822753906
 11.0097265243530273  6.1530742645263672 18.8619270324707031
  2.6058840751647949  0.1565189808607101 19.9026222229003906
  7.2868528366088867  0.5179780125617981 19.0675983428955078
  6.4862699508666992  8.0368032455444336 18.9618167877197266
 11.8258371353149414  7.5986022949218750 20.7154827117919922
  8.8392524719238281  2.5638709068298340 19.5651607513427734
  4.1281867027282715  2.1776652336120605 20.4451789855957031
  3.5146532058715820  5.9900212287902832 18.9509754180908203
  8.7989349365234375  5.6185965538024902 20.7203903198242188
  9.8604059219360352  0.3793160617351532 20.1857757568359375
  4.6748127937316895  0.8461898565292358 18.4404888153076172
  3.9269268512725830  8.2223472595214844 18.1946029663085938
  9.3003520965576172  7.8384418487548828 19.8900814056396484
 11.0363893508911133  3.1426866054534912 17.8791179656982422
  5.6638050079345703  3.6259455680847168 16.0831642150878906
  5.6141266822814941  6.5962624549865723 17.0494823455810547
 10.4098243713378906  7.1508679389953613 16.3839302062988281
  1.9335438013076782  0.9875815510749817 17.4642944335937500
  6.8022580146789551  1.5069326162338257 16.6030044555664062
  6.0474057197570801  8.9578113555908203 16.4121379852294922
 11.4257106781005859  8.4990367889404297 18.2394714355468750
  8.3798208236694336  3.4173641204833984 16.9489955902099609
  3.4995338916778564  2.9209773540496826 17.8116817474365234
  2.8825285434722900  6.8963279724121094 16.3776359558105469
  8.2379693984985352  6.4498672485351562 18.1407127380371094
  9.4635553359985352  1.2588602304458618 17.5438232421875000
  4.1196742057800293  1.6782391071319580 15.7647838592529297
  3.3586978912353516  9.1963853836059570 15.5881061553955078
  8.7177648544311523  8.7229604721069336 17.3054466247558594
 10.5109481811523438  4.0269732475280762 15.2179498672485352
  5.1282062530517578  4.5288310050964355 13.5076560974121094
  5.0262951850891113  7.6106319427490234 14.6115465164184570
  9.8830204010009766  8.1221818923950195 13.7660417556762695
  1.4277105331420898  1.8825044631958008 14.8452110290527344
  6.2610654830932617  2.3850338459014893 14.0203561782836914
  5.4671669006347656  9.9488267898559570 13.9348440170288086
 10.8896408081054688  9.4534139633178711 15.6304388046264648
  7.8924398422241211  4.2688226699829102 14.2969446182250977
  2.9663574695587158  3.8138787746429443 15.1976919174194336
 12.5780181884765625  7.8511219024658203 14.7478580474853516
  7.7396898269653320  7.3859376907348633 15.4559440612792969
  8.9560594558715820  2.1332356929779053 14.8893575668334961
  3.5898311138153076  2.6076917648315430 13.1241302490234375
 13.0285453796386719 10.1705579757690430 14.0161991119384766
  8.1846084594726562  9.6970796585083008 14.6572751998901367
 10.1947879791259766  4.8776021003723145 12.3235092163085938
  4.4781465530395508  5.4820752143859863 11.1448001861572266
  4.5217308998107910  8.5879173278808594 12.0356121063232422
  9.5005331039428711  9.0848789215087891 11.1558418273925781
 11.1355018615722656  2.6804409027099609 13.2377853393554688
  5.6899027824401855  3.2215251922607422 11.5374507904052734
  4.9051723480224609 10.6541843414306641 10.8607177734375000
 10.3756561279296875 10.4168729782104492 13.0419816970825195
  7.1576304435729980  5.3540639877319336 11.8520021438598633
  2.4516029357910156  4.7661151885986328 12.6677789688110352
 12.1409406661987305  8.6479282379150391 12.1843109130859375
  7.1603393554687500  8.3710193634033203 12.8459901809692383
  8.4037427902221680  2.9678511619567871 12.2508687973022461
  2.9921782016754150  3.4916131496429443 10.5279092788696289
 12.4453477859497070 10.7627105712890625 10.9873647689819336
  7.5400691032409668 10.5772371292114258 12.0506181716918945
  7.2148828506469727  7.4527802467346191 21.4258518218994141
  6.7818207740783691  1.3853150606155396 21.2951736450195312
 11.0676431655883789  5.4237575531005859 21.7982234954833984
  3.9691846370697021  3.1254062652587891 21.2836418151855469
