Mn O 
 1.0000000000000000
     8.1728658676147461    0.0000000000000000   -1.5986770391464233
    -6.2965831756591797    5.2104492187500000   -1.5986770391464233
     0.0000000000000000    0.0000000000000000   38.3682479858398438
 Mn  O  
  24  24
Cartesian
 -0.0000225318872253 -0.0398635827004910 15.3924160003662109
  0.8824003338813782  2.6365084648132324 13.8763732910156250
  2.6619873046875000 -0.0920489877462387 13.9239482879638672
  3.6736676692962646  2.7183139324188232 12.1996603012084961
  5.5142483711242676 -0.0122053204104304 12.2778539657592773
 -1.7285110950469971  2.5981585979461670 12.2839994430541992
 -0.0019567490089685  0.0045739407651126 18.6562099456787109
  0.9340712428092957  2.6074261665344238 17.0607070922851562
  2.7211196422576904  0.0052132103592157 17.0614471435546875
  3.6615529060363770  2.6125364303588867 15.4682044982910156
  5.4618782997131348 -0.0035181993152946 15.4575500488281250
 -1.7732532024383545  2.6004645824432373 15.4582815170288086
 -0.0117146773263812  0.0065890816040337 21.8541774749755859
  0.9251029491424561  2.6129870414733887 20.2596340179443359
  2.7293572425842285 -0.0000419441130362 20.2573242187500000
  3.6678009033203125  2.6025547981262207 18.6531276702880859
  5.4493255615234375  0.0021641079802066 18.6609954833984375
 -1.7841286659240723  2.6081876754760742 18.6585006713867188
 -0.0728343352675438 -0.0019354212563485 25.0082473754882812
  0.8773933649063110  2.6023793220520020 23.4039039611816406
  2.7910022735595703  0.0423762686550617 23.4384746551513672
  3.7130315303802490  2.5481877326965332 21.8986625671386719
  5.4405326843261719  0.0410704798996449 21.9162197113037109
 -1.7741641998291016  2.3665423393249512 21.6780643463134766
 -0.0053666303865612  3.9112069606781006 12.2652435302734375
 -0.9332724809646606  1.3351498842239380 13.8454866409301758
  2.8567965030670166  3.9275989532470703 10.7381381988525391
  4.5550699234008789  1.2947908639907837 13.8390636444091797
 -2.6844825744628906  3.8994750976562500 13.8355836868286133
  0.0470242910087109  3.9005026817321777 15.4391098022460938
 -0.8967826962471008  1.3025845289230347 17.0483608245849609
  1.8424032926559448  1.3106218576431274 15.4406223297119141
  2.7717483043670654  3.8918292522430420 13.8571910858154297
  4.5494837760925293  1.2956809997558594 17.0369606018066406
 -2.6847429275512695  3.9036655426025391 17.0371036529541016
  0.0439905263483524  3.9008202552795410 18.6332969665527344
 -0.9028096795082092  1.2999559640884399 20.2435951232910156
  1.8303339481353760  1.2977432012557983 18.6407642364501953
  2.7680947780609131  3.9048280715942383 17.0429458618164062
  4.5514111518859863  1.3087255954742432 20.2260875701904297
 -2.6937861442565918  3.8869600296020508 20.2380523681640625
  0.2455778717994690  3.8774976730346680 21.7668190002441406
 -0.8333191275596619  1.2876278162002563 23.4390926361083984
  1.8187115192413330  1.3102674484252930 21.8517875671386719
  2.7790718078613281  3.9150919914245605 20.2657852172851562
  4.4678096771240234  1.2988945245742798 23.3658866882324219
 -3.1235935688018799  3.9255273342132568 23.6972217559814453
 -1.3452464342117310  4.1396389007568359 22.8488330841064453
