Mn O 
 1.0000000000000000
     8.1728658676147461    0.0000000000000000   -1.5986770391464233
    -6.2965831756591797    5.2104492187500000   -1.5986770391464233
     0.0000000000000000    0.0000000000000000   38.3682479858398438
 Mn  O  
  24  24
Cartesian
  2.0680568218231201  5.0249319076538086 12.0874137878417969
  1.0491293668746948  2.5324227809906006 13.9056434631347656
 -3.3710618019104004  4.9451713562011719 12.1860485076904297
  3.8493952751159668  2.5876035690307617 12.2101821899414062
 -0.5892896056175232  4.9898853302001953 10.7656345367431641
 -1.4884384870529175  2.5546844005584717 12.2991008758544922
 -6.1660795211791992  5.1455249786376953 17.0408802032470703
  1.0476615428924561  2.5052857398986816 17.0555973052978516
 -3.4458825588226318  5.1363706588745117 15.4587631225585938
  3.7695925235748291  2.5247700214385986 15.4559345245361328
 -0.6735312938690186  5.1201772689819336 13.9137802124023438
 -1.6399937868118286  2.4944095611572266 15.4687080383300781
 -6.2242021560668945  5.1638102531433105 20.2558803558349609
  0.8747633099555969  2.6027245521545410 20.2389945983886719
  2.7955236434936523 -0.0332543365657330 20.3334541320800781
  3.7469699382781982  2.6159784793853760 18.7006244659423828
 -0.7444729208946228  5.1631951332092285 17.1057586669921875
 -1.7013299465179443  2.5509872436523438 18.6582584381103516
 -0.1560136228799820  0.0999997183680534 24.9189186096191406
  0.7150222063064575  2.5465013980865479 23.4150619506835938
  2.9511702060699463  0.4200268089771271 24.2551498413085938
  3.5781590938568115  2.5889201164245605 21.7726573944091797
  5.3582978248596191  0.0958339646458626 22.0217494964599609
 -1.8766458034515381  2.7181594371795654 21.9893646240234375
  0.2000997364521027  3.7873632907867432 12.3069410324096680
 -0.8577008247375488  1.2095091342926025 13.7880487442016602
  3.2008898258209229  3.8155281543731689 10.8141832351684570
  4.5219335556030273  1.1236931085586548 13.5518026351928711
 -2.4506878852844238  3.7813668251037598 13.8524408340454102
  0.1956585794687271  3.8013670444488525 15.4417209625244141
 -0.7754545807838440  1.1666592359542847 16.9482021331787109
  1.9787704944610596  1.2302309274673462 15.3359336853027344
  2.8941400051116943  3.7464609146118164 13.8170976638793945
  4.6623439788818359  1.2027151584625244 16.9652442932128906
 -2.5725960731506348  3.7856566905975342 16.9783535003662109
  0.1391322612762451  3.8081262111663818 18.5817813873291016
 -0.7996979951858521  1.2107580900192261 20.1692485809326172
  1.9318920373916626  1.2001014947891235 18.5656452178955078
  2.8922350406646729  3.8567256927490234 17.0611991882324219
  4.5527033805847168  1.2357305288314819 20.1568431854248047
 -2.5514261722564697  3.8012611865997314 20.1696910858154297
  0.1491087675094604  3.9447216987609863 21.9590911865234375
 -0.9618671536445618  1.2019592523574829 23.2396087646484375
  1.8365193605422974  1.4546886682510376 21.7442569732666016
  2.6676614284515381  3.7736284732818604 20.3163337707519531
  4.2566833496093750  1.4448068141937256 23.1414508819580078
  1.3279110193252563  1.4264204502105713 24.9363269805908203
 -3.0862555503845215  3.7628512382507324 23.3025970458984375
