Ni O 
 1.0000000000000000
     8.1986503601074219    0.0000000000000000    1.0289880037307739
     4.0591487884521484    9.4208240509033203    0.8346049785614014
     0.0000000000000000    0.0000000000000000   33.1766052246093750
 Ni  O  
  36  46
Cartesian
  5.6088171005249023  5.8729052543640137 21.6643066406250000
  1.4096724987030029  3.0311887264251709 21.9458293914794922
  9.8081731796264648  8.8127059936523438 21.3822288513183594
  7.6199231147766113  7.6557478904724121 22.8762016296386719
  3.6804099082946777  4.0550241470336914 20.4633445739746094
  7.6336464881896973  1.2355858087539673 21.7395324707031250
  3.3600616455078125  7.6558413505554199 22.3416366577148438
  7.7745761871337891  4.0550785064697266 20.9770412445068359
  3.6278991699218750  1.2359304428100586 21.2370109558105469
  5.9526748657226562  5.1099376678466797 18.9242172241210938
  1.7546762228012085  2.2306413650512695 19.1947498321533203
 10.1550502777099609  7.9993529319763184 18.6180076599121094
  7.8735313415527344  6.9205460548400879 20.1235809326171875
  4.0307650566101074  3.2690005302429199 17.6657371520996094
  8.0164976119995117  0.3981074392795563 18.9782733917236328
  3.7947390079498291  6.9204964637756348 19.6116733551025391
  8.1261482238769531  3.2689223289489746 18.1798210144042969
  3.9394311904907227  0.3981184661388397 18.4666004180908203
  6.3039488792419434  4.3109235763549805 16.1244373321533203
  2.1029009819030762  1.4219237565994263 16.4206619262695312
 10.5035953521728516  7.1896018981933594 15.8427705764770508
  8.2264566421508789  6.1512851715087891 17.3745422363281250
  4.3799371719360352  2.4912185668945312 14.9087209701538086
  4.2434659004211426  9.0271987915039062 16.0556011199951172
  4.1322412490844727  6.1511983871459961 16.8605747222900391
  8.4693489074707031  2.4903149604797363 15.4226255416870117
  8.3177461624145508  9.0268812179565430 16.5677185058593750
  6.6486387252807617  3.5413935184478760 13.4019508361816406
  2.4514000415802002  0.6230522394180298 13.6507835388183594
 10.8466796875000000  6.3942403793334961 13.1100063323974609
  8.5815134048461914  5.3678083419799805 14.5773563385009766
  4.7089133262634277  1.7388385534286499 12.2341766357421875
  4.6171579360961914  8.1929788589477539 13.3055667877197266
  4.4791979789733887  5.3660812377929688 14.0616235733032227
  8.8095903396606445  1.7438175678253174 12.7526617050170898
  8.6355371475219727  8.1922178268432617 13.8102731704711914
  9.8290796279907227  3.8344526290893555 21.2140254974365234
  5.6240172386169434  0.8644227981567383 21.5437831878662109
  5.7471284866333008  4.2483096122741699 20.5620250701904297
  1.5411944389343262  1.3486388921737671 20.8955192565917969
  7.4829568862915039  5.9722180366516113 21.9194908142089844
  3.2407615184783936  2.9791297912597656 22.1396579742431641
 11.6925373077392578  8.7519588470458984 21.6726303100585938
  7.7854895591735840  2.9793362617492676 22.7104873657226562
  7.9103355407714844  8.7519826889038086 21.1979904174804688
  3.7297785282135010  5.9722609519958496 21.4482460021972656
  5.8342905044555664  6.7258491516113281 19.8672485351562500
  1.9686970710754395  3.0245029926300049 17.4905834197998047
  5.9778709411621094  0.1585592478513718 18.7235431671142578
  9.9437723159790039  7.1694769859313965 20.3010730743408203
  6.0874490737915039  3.5215585231781006 17.8504943847656250
  1.8855732679367065  0.6455091238021851 18.1530170440673828
  7.8176622390747070  5.0996351242065430 19.1310863494873047
  3.6107213497161865  2.2179865837097168 19.4252853393554688
  3.8169074058532715  7.9815583229064941 17.8049411773681641
  8.0982236862182617  2.2179763317108154 19.9885540008544922
  8.2988471984863281  7.9815611839294434 18.3673686981201172
  4.0943975448608398  5.0997471809387207 18.6638412475585938
  6.1713585853576660  5.8981590270996094 17.1821556091308594
  2.3138782978057861  2.2509512901306152 14.7398290634155273
 10.3721208572387695  8.7744340896606445 16.8876571655273438
 10.2890710830688477  6.3963212966918945 17.5495529174804688
  6.4260311126708984  2.7029907703399658 15.1543836593627930
  6.2799043655395508  9.2608489990234375 16.3185043334960938
  8.1614599227905273  4.3200917243957520 16.3777732849121094
  3.9599473476409912  1.4390926361083984 16.6743183135986328
  4.1591272354125977  7.2020883560180664 15.0527629852294922
  8.4394178390502930  1.4392771720886230 17.2365837097167969
  8.6472873687744141  7.2019486427307129 15.6157779693603516
  4.4417109489440918  4.3200101852416992 15.9115953445434570
  6.5132679939270020  5.1583504676818848 14.4591989517211914
 10.7164106369018555  8.0671005249023438 14.1445455551147461
  2.4288597106933594  5.5867471694946289 13.8242015838623047
  6.6353254318237305  8.5581121444702148 13.4796142578125000
  8.4944725036621094  3.4734623432159424 13.5888681411743164
  4.3368706703186035  0.6538092494010925 13.8641881942749023
  4.4725270271301270  6.4438090324401855 12.3177642822265625
  0.5705440640449524  0.6539626121520996 13.3918380737304688
  9.0190362930297852  6.4435415267944336 12.8885669708251953
  4.8052811622619629  3.4777700901031494 13.1273918151855469
 10.0916023254394531  7.6719717979431152 24.8017845153808594
  8.6887369155883789  7.6720533370971680 24.6256313323974609
