Ni O 
 1.0000000000000000
     8.1986503601074219    0.0000000000000000    1.0289880037307739
     4.0591487884521484    9.4208240509033203    0.8346049785614014
     0.0000000000000000    0.0000000000000000   33.1766052246093750
 Ni  O  
  36  46
Cartesian
  5.6159710884094238  5.8727259635925293 21.6084785461425781
  1.4241642951965332  2.9509317874908447 21.8332252502441406
  9.8101062774658203  8.8520927429199219 21.3656234741210938
  7.9005665779113770  7.5005812644958496 22.8708915710449219
  3.6707274913787842  4.0896368026733398 20.4974040985107422
  7.5610389709472656  1.2700052261352539 21.7526988983154297
  3.0897514820098877  7.5015578269958496 22.2669162750244141
  7.7751021385192871  4.0892438888549805 21.0126800537109375
  3.6951258182525635  1.2694848775863647 21.2674942016601562
  5.9569635391235352  5.0973286628723145 18.8901901245117188
  1.7557643651962280  2.1948437690734863 19.1880683898925781
 10.1565437316894531  8.0068340301513672 18.6068000793457031
  7.8604650497436523  6.9510273933410645 20.1234474182128906
  4.0284972190856934  3.2743799686431885 17.6750011444091797
  8.0044059753417969  0.4138847887516022 18.9733161926269531
  3.8084878921508789  6.9517745971679688 19.6150283813476562
  8.1268014907836914  3.2746343612670898 18.1892108917236328
  3.9529125690460205  0.4139366745948792 18.4648151397705078
  6.3026399612426758  4.3206419944763184 16.1353569030761719
  2.1013615131378174  1.4077963829040527 16.4343833923339844
 10.5017185211181641  7.2165579795837402 15.8534841537475586
  8.2277650833129883  6.1461915969848633 17.3723087310791016
  4.3730187416076660  2.4890336990356445 14.9334363937377930
  4.2523136138916016  9.0067758560180664 16.0549278259277344
  4.1307349205017090  6.1458582878112793 16.8581886291503906
  8.4702301025390625  2.4893965721130371 15.4474697113037109
  8.3091115951538086  9.0066947937011719 16.5645179748535156
  6.6400237083435059  3.5676386356353760 13.4450359344482422
  2.4509241580963135  0.5687102675437927 13.6508007049560547
 10.8354768753051758  6.4909443855285645 13.1912479400634766
  8.5967988967895508  5.3615670204162598 14.5334835052490234
  4.7177605628967285  1.8266535997390747 12.4357662200927734
  4.6988520622253418  8.1376104354858398 13.2907485961914062
  4.4743461608886719  5.3613672256469727 14.0164337158203125
  8.7531814575195312  1.8266749382019043 12.9429321289062500
  8.5596008300781250  8.1381483078002930 13.7753677368164062
  9.8362855911254883  3.8342554569244385 21.1579570770263672
  5.6081323623657227  0.8564649820327759 21.6690139770507812
  5.7496852874755859  4.2149939537048340 20.5411529541015625
  1.5457892417907715  1.2934234142303467 20.8618488311767578
  7.5244860649108887  5.9640846252441406 21.9401226043701172
  3.2208912372589111  2.9638993740081787 22.1222362518310547
 11.6398725509643555  8.7566776275634766 21.8439083099365234
  7.8102164268493652  2.9638812541961670 22.6985435485839844
  7.9190411567687988  8.7560663223266602 21.3771953582763672
  3.6845371723175049  5.9648346900939941 21.4582767486572266
  5.8416180610656738  6.7282280921936035 19.8105545043945312
  1.9698572158813477  3.0034482479095459 17.4833030700683594
  5.9811992645263672  0.2030586004257202 18.6985301971435547
  9.9406223297119141  7.2378072738647461 20.3285484313964844
  6.0895423889160156  3.5165920257568359 17.8357505798339844
  1.8852683305740356  0.6226585507392883 18.1561660766601562
  7.8149008750915527  5.0991668701171875 19.1458206176757812
  3.6147303581237793  2.1988520622253418 19.4228973388671875
  3.8098607063293457  7.9980835914611816 17.8293991088867188
  8.0951423645019531  2.1989760398864746 19.9851856231689453
  8.2998390197753906  7.9980983734130859 18.3932895660400391
  4.0933818817138672  5.0992336273193359 18.6789207458496094
  6.1720743179321289  5.8974380493164062 17.1741008758544922
  2.3176472187042236  2.1813004016876221 14.7110586166381836
 10.3719902038574219  8.7864637374877930 16.8887329101562500
 10.2874221801757812  6.4111657142639160 17.5609493255615234
  6.4213714599609375  2.6921031475067139 15.1920433044433594
  6.2761626243591309  9.2123575210571289 16.3466930389404297
  8.1659221649169922  4.3188271522521973 16.3553409576416016
  3.9573075771331787  1.4264619350433350 16.6519279479980469
  4.1621651649475098  7.1993880271911621 15.0570182800292969
  8.4477577209472656  1.4266079664230347 17.2153778076171875
  8.6427192687988281  7.1996450424194336 15.6194076538085938
  4.4428997039794922  4.3185071945190430 15.8883399963378906
  6.5126228332519531  5.1933569908142090 14.4598846435546875
 10.7107753753662109  8.1318607330322266 14.1874160766601562
  2.4236588478088379  5.5911850929260254 13.8614530563354492
  6.6589956283569336  8.5892925262451172 13.2972393035888672
  8.4692764282226562  3.5438916683197021 13.5476284027099609
  4.3277521133422852  0.5395255088806152 13.7892522811889648
  4.4500913619995117  6.4887986183166504 12.3077116012573242
  0.5979501008987427  0.5391592383384705 13.3211822509765625
  9.0425395965576172  6.4891910552978516 12.8840255737304688
  4.8421730995178223  3.5436489582061768 13.0930862426757812
 10.0828933715820312  7.7418775558471680 24.6706981658935547
  8.7285823822021484  7.7416372299194336 24.5008621215820312
