Ti O 
 1.0000000000000000
     8.6923570632934570    0.0000000000000000    0.0000000000000000
     8.6923570632934570    7.4976320266723633   -1.4815200567245483
     0.0000000000000000    0.0000000000000000   34.7231636047363281
 Ti  O  
  30  30
Cartesian
  7.2734050750732422 -0.0657800212502480 14.2964086532592773
 11.6195812225341797  3.6830375194549561 13.5556497573852539
  1.4203015565872192 -0.0660914778709412 14.2964525222778320
  5.7664809226989746  3.6827251911163330 13.5556945800781250
  4.3462696075439453  1.5305106639862061 14.7851581573486328
  8.6924476623535156  5.2793273925781250 14.0443973541259766
  7.1660790443420410  2.5202078819274902 15.5661983489990234
 11.5122575759887695  6.2690210342407227 14.8254375457763672
 10.2185811996459961  2.5202379226684570 15.5666427612304688
 14.5647602081298828  6.2690525054931641 14.8258800506591797
 -0.0000413756206399  0.0654744207859039 16.9590187072753906
  4.3461375236511230  3.8142910003662109 16.2182579040527344
  2.9175770282745361  1.2639185190200806 17.7685852050781250
  7.2637543678283691  5.0127325057983398 17.0278244018554688
  5.7748966217041016  1.2637099027633667 17.7681350708007812
 10.1210765838623047  5.0125231742858887 17.0273742675781250
  8.6921472549438477  2.5366580486297607 18.4823150634765625
 13.0383262634277344  6.2854738235473633 17.7415580749511719
  7.2454943656921387  0.0212981477379799 19.9059829711914062
 11.5916719436645508  3.7701086997985840 19.1652221679687500
  1.4468736648559570  0.0215123556554317 19.9058189392089844
  5.7930531501770020  3.7703230381011963 19.1650581359863281
  4.3463377952575684  1.2893227338790894 20.7357444763183594
  8.6925172805786133  5.0381293296813965 19.9949798583984375
  7.2533607482910156  2.5709223747253418 21.3456859588623047
 11.5995454788208008  6.3197331428527832 20.6049251556396484
 10.1314086914062500  2.5707414150238037 21.3451061248779297
 14.4775810241699219  6.3195528984069824 20.6043453216552734
 -0.0026306549552828 -0.0672085508704185 22.6622619628906250
  4.3435430526733398  3.6816029548645020 21.9214973449707031
  6.3630390167236328  1.8691629171371460 13.6000556945800781
 10.7092142105102539  5.6179795265197754 12.8592967987060547
  2.3292088508605957  1.8694601058959961 13.5999736785888672
  6.6753907203674316  5.6182808876037598 12.8592157363891602
  8.6925296783447266  1.1625131368637085 15.2304878234863281
 13.0387058258056641  4.9113287925720215 14.4897270202636719
  2.7039859294891357  0.7945064902305603 15.7713775634765625
  7.0501632690429688  4.5433249473571777 15.0306186676025391
  5.9885830879211426  0.7936016917228699 15.7706766128540039
 10.3347616195678711  4.5424184799194336 15.0299177169799805
  8.6924810409545898  3.4871902465820312 16.7714157104492188
 13.0386600494384766  7.2360048294067383 16.0306549072265625
 11.3504362106323242  3.2861185073852539 17.1371955871582031
 15.6966152191162109  7.0349335670471191 16.3964347839355469
  6.0346159934997559  3.2861132621765137 17.1373863220214844
 10.3807945251464844  7.0349283218383789 16.3966255187988281
  4.3463463783264160  2.2318964004516602 18.9610042572021484
  8.6925239562988281  5.9807133674621582 18.2202415466308594
  6.9719552993774414  2.0412116050720215 19.3229064941406250
 11.3181390762329102  5.7900280952453613 18.5821475982666016
 10.4126482009887695  2.0411179065704346 19.3225841522216797
 14.7588205337524414  5.7899341583251953 18.5818252563476562
  8.6921176910400391  0.9508524537086487 21.0188465118408203
 13.0382966995239258  4.6996698379516602 20.2780952453613281
  2.5744626522064209  0.7666283249855042 21.5296859741210938
  6.9206337928771973  4.5154457092285156 20.7889308929443359
  6.1184220314025879  0.7669619321823120 21.5305957794189453
 10.4646091461181641  4.5157785415649414 20.7898406982421875
  8.6924200057983398  2.9126396179199219 22.5537204742431641
 13.0385990142822266  6.6614522933959961 21.8129615783691406
