Ti O 
 1.0000000000000000
     8.6923570632934570    0.0000000000000000    0.0000000000000000
     8.6923570632934570    7.4976320266723633   -1.4815200567245483
     0.0000000000000000    0.0000000000000000   34.7231636047363281
 Ti  O  
  30  30
Cartesian
  7.2441458702087402 -0.0214531235396862 14.1819753646850586
 11.5903272628784180  3.7273626327514648 13.4412155151367188
  1.4483968019485474 -0.0216356161981821 14.1817378997802734
  5.7945747375488281  3.7271797657012939 13.4409780502319336
  4.3462557792663574  1.2999619245529175 14.8747425079345703
  8.6924324035644531  5.0487766265869141 14.1339836120605469
  7.2403521537780762  2.4798605442047119 15.5471210479736328
 11.5865306854248047  6.2286763191223145 14.8063611984252930
 10.1444587707519531  2.4800333976745605 15.5474939346313477
 14.4906377792358398  6.2288489341735840 14.8067340850830078
  0.0001754117693054 -0.0136408917605877 17.0130538940429688
  4.3463511466979980  3.7351756095886230 16.2722911834716797
  2.8977501392364502  1.2448753118515015 17.7564010620117188
  7.2439289093017578  4.9936923980712891 17.0156421661376953
  5.7946581840515137  1.2446577548980713 17.7564849853515625
 10.1408367156982422  4.9934744834899902 17.0157241821289062
  8.6924076080322266  2.5040640830993652 18.4782962799072266
 13.0385885238647461  6.2528810501098633 17.7375373840332031
  7.2321534156799316  0.0128976516425610 19.9443035125732422
 11.5783309936523438  3.7617139816284180 19.2035446166992188
  1.4600203037261963  0.0128959268331528 19.9445152282714844
  5.8062000274658203  3.7617113590240479 19.2037544250488281
  4.3462171554565430  1.2424463033676147 20.7111721038818359
  8.6923980712890625  4.9912610054016113 19.9704113006591797
  7.2896375656127930  2.5942816734313965 21.4032135009765625
 11.6358184814453125  6.3430981636047363 20.6624526977539062
 10.0947961807250977  2.5939507484436035 21.4035015106201172
 14.4409770965576172  6.3427667617797852 20.6627426147460938
  0.0001593308988959 -0.0273792520165443 22.7887611389160156
  4.3463315963745117  3.7214395999908447 22.0480003356933594
  6.9255061149597168  2.0303552150726318 13.5532712936401367
 11.2716846466064453  5.7791695594787598 12.8125114440917969
 10.4591875076293945  2.0298178195953369 13.5532541275024414
 14.8053665161132812  5.7786321640014648 12.8124933242797852
  8.6923074722290039  1.0007238388061523 15.3147153854370117
 13.0384855270385742  4.7495369911193848 14.5739507675170898
  2.6557810306549072  0.7505606412887573 15.7186679840087891
  7.0019650459289551  4.4993739128112793 14.9779024124145508
  6.0362796783447266  0.7505441308021545 15.7185363769531250
 10.3824558258056641  4.4993610382080078 14.9777784347534180
  8.6923036575317383  3.4864449501037598 16.7698936462402344
 13.0384817123413086  7.2352614402770996 16.0291347503662109
 11.3286132812500000  3.2566707134246826 17.1578083038330078
 15.6747951507568359  7.0054883956909180 16.4170475006103516
  6.0560307502746582  3.2567920684814453 17.1578140258789062
 10.4022064208984375  7.0056085586547852 16.4170532226562500
  4.3462963104248047  2.2322714328765869 18.9382972717285156
  8.6924743652343750  5.9810872077941895 18.1975383758544922
  6.9793090820312500  2.0090827941894531 19.3313674926757812
 11.3254861831665039  5.7578978538513184 18.5906047821044922
 10.4052352905273438  2.0088553428649902 19.3312301635742188
 14.7514152526855469  5.7576708793640137 18.5904693603515625
  8.6923494338989258  0.9782385230064392 21.1383781433105469
 13.0385284423828125  4.7270574569702148 20.3976154327392578
  2.6035187244415283  0.7426874637603760 21.4871158599853516
  6.9496974945068359  4.4915022850036621 20.7463531494140625
  6.0890870094299316  0.7428172230720520 21.4871025085449219
 10.4352655410766602  4.4916305541992188 20.7463397979736328
  8.6922731399536133  3.3337166309356689 22.4572124481201172
 13.0384511947631836  7.0825324058532715 21.7164516448974609
