V  O 
 1.0000000000000000
     9.6564540863037109    0.0000000000000000   -2.8766720294952393
    11.8328218460083008    7.2405490875244141   -2.6157910823822021
     0.0000000000000000    0.0000000000000000   35.2919616699218750
 V   O  
  28  62
Cartesian
 18.2732257843017578  6.7236213684082031  8.3805570602416992
 12.3568830490112305  3.1032888889312744  9.6884317398071289
 15.3604192733764648  5.0406589508056641  9.0256586074829102
  9.4439220428466797  1.4203884601593018 10.3335819244384766
  6.1148471832275391  2.2436201572418213 13.1140422821044922
 12.0311946868896484  5.8639912605285645 11.8060369491577148
  3.1840155124664307  0.4710308611392975 13.7835187911987305
  9.1003637313842773  4.0912647247314453 12.4756174087524414
 15.3531122207641602  4.9612579345703125 12.5138082504272461
  9.4366130828857422  1.3407386541366577 13.8222522735595703
 18.3334007263183594  6.7944393157958984 11.9005327224731445
 12.4168367385864258  3.1738815307617188 13.2080297470092773
  3.1532337665557861  0.4557586014270782 17.3240623474121094
  9.0694303512573242  4.0756974220275879 16.0161933898925781
  6.1350388526916504  2.2803361415863037 16.6912155151367188
 12.0500593185424805  5.9008369445800781 15.3837327957153320
 18.3180236816406250  6.7683043479919434 15.4003229141235352
 12.3990316390991211  3.1515002250671387 16.7067222595214844
 15.3813209533691406  4.9648523330688477 16.0582256317138672
  9.4642210006713867  1.3467390537261963 17.3728103637695312
  6.1038861274719238  2.2839229106903076 20.2197513580322266
 12.0213851928710938  5.9100975990295410 18.9201221466064453
  3.1690974235534668  0.4629721343517303 20.9103145599365234
  9.0806980133056641  4.0830616950988770 19.6014957427978516
 15.4116840362548828  5.0054826736450195 19.5368556976318359
  9.4758949279785156  1.3665107488632202 20.8450660705566406
 18.2556819915771484  6.5859580039978027 18.8026695251464844
 12.4367113113403320  3.0768029689788818 20.2362041473388672
 13.9507493972778320  6.1012926101684570  8.3397026062011719
  8.0343027114868164  2.4810223579406738  9.6475801467895508
 16.4837169647216797  6.4979763031005859  8.3280029296875000
 10.5672883987426758  2.8776810169219971  9.6359052658081055
  3.0230593681335449  1.3222105503082275 12.0477857589721680
  8.9394826889038086  4.9424600601196289 10.7399063110351562
  6.2417187690734863  1.4102938175201416 11.4533777236938477
 12.1581277847290039  5.0306181907653809 10.1455488204956055
 20.2110614776611328  7.0698943138122559  8.3007841110229492
 14.2946481704711914  3.4496426582336426  9.6086606979370117
  1.2495950460433960  0.1961269229650497 13.8159399032592773
  7.1660289764404297  3.8164041042327881 12.5080375671386719
 15.2575588226318359  5.7935762405395508 10.7096996307373047
  9.3411369323730469  2.1733570098876953 12.0174436569213867
 18.4581432342529297  5.9943342208862305 10.1112070083618164
 12.5417318344116211  2.3741014003753662 11.4191694259643555
  5.0475535392761230  0.7164684534072876 13.8250560760498047
 10.9640655517578125  4.3367099761962891 12.5172414779663086
  7.5711417198181152  1.0907540321350098 13.8258762359619141
 13.4876298904418945  4.7109961509704590 12.5180873870849609
  5.9869856834411621  3.0735676288604736 14.8940324783325195
 11.9035348892211914  6.6936979293823242 13.5861234664916992
 15.1072721481323242  6.8752727508544922 13.0183916091918945
  9.1909542083740234  3.2550706863403320 14.3261489868164062
 17.2691993713378906  5.2495894432067871 12.5036649703979492
 11.3529777526855469  1.6293723583221436 13.8114662170410156
  4.2213473320007324  1.9922953844070435 16.7044353485107422
 10.1377649307250977  5.6125493049621582 15.3963956832885742
  6.3811473846435547  0.3644979298114777 16.1926994323730469
 12.2979574203491211  3.9840726852416992 14.8853693008422852
 15.5015602111816406  4.1682829856872559 14.3208894729614258
  9.5852947235107422  0.5473888516426086 15.6272258758544922
 13.9184579849243164  6.1473116874694824 15.3896532058715820
  8.0006875991821289  2.5275492668151855 16.6966991424560547
 16.4430446624755859  6.5223464965820312 15.3911180496215820
 10.5287590026855469  2.9027166366577148 16.6987590789794922
  3.0294272899627686  1.2635146379470825 19.0717620849609375
  8.9460515975952148  4.8823566436767578 17.7636642456054688
  6.2337789535522461  1.4443737268447876 18.5051040649414062
 12.1507396697998047  5.0635452270507812 17.1958618164062500
 20.2234516143798828  7.0607476234436035 15.3763313293457031
 14.3085603713989258  3.4410088062286377 16.6847896575927734
  1.2614656686782837  0.1839855313301086 20.8838977813720703
  7.1761646270751953  3.8029761314392090 19.5771503448486328
 15.2549896240234375  5.7798886299133301 17.7875862121582031
  9.3399648666381836  2.1639773845672607 19.0854187011718750
 18.4588260650634766  5.9790096282958984 17.1876659393310547
 12.5417356491088867  2.3628504276275635 18.5051193237304688
  5.0540657043457031  0.7119030356407166 20.8809242248535156
 10.9804172515869141  4.3262577056884766 19.5866413116455078
  7.5717678070068359  1.1134090423583984 20.8274593353271484
 13.4948215484619141  4.6993546485900879 19.5964088439941406
  5.9783306121826172  3.1149461269378662 21.9499511718750000
 11.9006834030151367  6.7358984947204590 20.6337203979492188
 15.1126756668090820  6.8162808418273926 20.0440521240234375
  9.2009029388427734  3.2072143554687500 21.3531742095947266
 17.2124195098876953  5.2662887573242188 19.5614910125732422
 11.3455505371093750  1.6717860698699951 20.8747768402099609
  4.1809334754943848  2.0453345775604248 23.7541198730468750
 10.1040210723876953  5.6425266265869141 22.4399280548095703
  6.2465143203735352  0.3820806443691254 23.3785953521728516
  7.6466383934020996  0.4510636925697327 22.7395248413085938
