V  O 
 1.0000000000000000
     9.6564540863037109    0.0000000000000000   -2.8766720294952393
    11.8328218460083008    7.2405490875244141   -2.6157910823822021
     0.0000000000000000    0.0000000000000000   35.2919616699218750
 V   O  
  28  62
Cartesian
 18.2817783355712891  6.4798254966735840  8.4639959335327148
 12.3657283782958984  2.8578288555145264  9.7696609497070312
 15.2438983917236328  4.9958877563476562  8.9545202255249023
  9.3278188705444336  1.3747770786285400 10.2618799209594727
  6.1350369453430176  2.1258797645568848 12.8934364318847656
 12.0512800216674805  5.7454862594604492 11.5839681625366211
  3.1257121562957764  0.3801081776618958 13.7828016281127930
  9.0422878265380859  4.0018987655639648 12.4722166061401367
 15.3721513748168945  4.8728890419006348 12.4098672866821289
  9.4566144943237305  1.2527267932891846 13.7181367874145508
 18.3046970367431641  6.8332829475402832 11.9548358917236328
 12.3893175125122070  3.2121968269348145 13.2619400024414062
  3.1533980369567871  0.4414331614971161 17.3230419158935547
  9.0706529617309570  4.0597338676452637 16.0116958618164062
  6.1148271560668945  2.2504951953887939 16.6690940856933594
 12.0290021896362305  5.8720388412475586 15.3599462509155273
 18.3405933380126953  6.8690099716186523 15.4362707138061523
 12.4274387359619141  3.2487716674804688 16.7425956726074219
 15.4077062606811523  4.9073753356933594 15.8893680572509766
  9.4949045181274414  1.2905298471450806 17.1984138488769531
  6.0913467407226562  2.3654806613922119 20.4477596282958984
 12.0066804885864258  5.9996385574340820 19.1258621215820312
  3.1939895153045654  0.5029606223106384 20.8594036102294922
  9.0902223587036133  4.1229324340820312 19.5541687011718750
 15.4335374832153320  5.2635149955749512 19.3801250457763672
  9.5128746032714844  1.6392375230789185 20.6850032806396484
 18.5006446838378906  6.7048611640930176 18.9094467163085938
 12.5369148254394531  3.1423499584197998 20.1947975158691406
 14.0782222747802734  5.5783958435058594  8.0050888061523438
  8.1623373031616211  1.9537199735641479  9.3098182678222656
 16.5892696380615234  6.1657233238220215  8.1880493164062500
 10.6726608276367188  2.5463569164276123  9.4963912963867188
  3.2465257644653320  1.3130087852478027 12.0344562530517578
  9.1629409790039062  4.9331569671630859 10.7274551391601562
  6.2961807250976562  1.1206748485565186 11.4450960159301758
 12.2131881713867188  4.7406697273254395 10.1364097595214844
 20.3032016754150391  7.0018391609191895  8.0903081893920898
 14.3866729736328125  3.3815848827362061  9.3961038589477539
  1.2876862287521362  0.0962947383522987 13.5990686416625977
  7.2046413421630859  3.7164344787597656 12.2938861846923828
 15.2214765548706055  5.7528228759765625 10.6158485412597656
  9.3039846420288086  2.1337234973907471 11.9226322174072266
 18.4424648284912109  5.9154620170593262 10.1415357589721680
 12.5270290374755859  2.2951676845550537 11.4490985870361328
  5.0575346946716309  0.6718764901161194 13.8242931365966797
 10.9742565155029297  4.2922363281250000 12.5173730850219727
  7.5812931060791016  1.0384243726730347 13.8009643554687500
 13.4981555938720703  4.6584172248840332 12.4933872222900391
  6.0120234489440918  3.0418975353240967 14.8128776550292969
 11.9285860061645508  6.6620888710021973 13.5062313079833984
 15.0851964950561523  6.8491740226745605 12.9706554412841797
  9.1705780029296875  3.2304534912109375 14.2799758911132812
 17.2633628845214844  5.2507376670837402 12.4758968353271484
 11.3459625244140625  1.6308919191360474 13.7799787521362305
  4.2174181938171387  1.9896926879882812 16.6618156433105469
 10.1329746246337891  5.6102890968322754 15.3552513122558594
  6.3763175010681152  0.3597510159015656 16.2264385223388672
 12.2959327697753906  3.9805514812469482 14.9195404052734375
 15.4981670379638672  4.1410150527954102 14.2348432540893555
  9.5824813842773438  0.5213928222656250 15.5403814315795898
 13.9209375381469727  6.1307187080383301 15.3690605163574219
  8.0037364959716797  2.5141849517822266 16.6739253997802734
 16.4433898925781250  6.4930529594421387 15.3693294525146484
 10.5307559967041016  2.8751134872436523 16.6802806854248047
  3.0441265106201172  1.2768365144729614 19.0540122985839844
  8.9668254852294922  4.8947472572326660 17.7537746429443359
  6.2119674682617188  1.4605267047882080 18.5284233093261719
 12.1225099563598633  5.0804028511047363 17.2158603668212891
 20.2105121612548828  7.0859804153442383 15.3514652252197266
 14.2995281219482422  3.4610416889190674 16.6658611297607422
  1.2479726076126099  0.2106552273035049 20.8159446716308594
  7.1635513305664062  3.8249106407165527 19.5125617980957031
 15.2717485427856445  5.8237104415893555 17.7055072784423828
  9.3485670089721680  2.2094883918762207 19.0078468322753906
 18.4656467437744141  5.9918074607849121 17.2272434234619141
 12.5710783004760742  2.3697352409362793 18.5420188903808594
  5.0075058937072754  0.7869728803634644 21.0160732269287109
 10.9324016571044922  4.4098267555236816 19.7485771179199219
  7.4962520599365234  1.0912468433380127 21.0930690765380859
 13.4111871719360352  4.7452926635742188 19.7355918884277344
  5.9312410354614258  3.3735339641571045 21.8937759399414062
 11.8495721817016602  7.0036501884460449 20.5766201019287109
 14.8995990753173828  6.8066382408142090 19.9975223541259766
  8.9644079208374023  3.1798856258392334 21.2990207672119141
 17.1323909759521484  5.5700526237487793 19.6673717498779297
 11.2007694244384766  1.9545495510101318 20.9619979858398438
 13.6897010803222656  2.5920562744140625 21.1824874877929688
 10.0560054779052734  6.0203700065612793 22.5995712280273438
  6.3872046470642090  0.6645090579986572 24.0292053222656250
  7.3563971519470215  1.2025203704833984 24.5649623870849609
