Co O 
 1.0000000000000000
     9.8752183914184570    0.0000000000000000    0.0000000000000000
     0.0000000000000000   10.2948179244995117   -2.8146429061889648
     0.0000000000000000    0.0000000000000000   33.7757110595703125
 Co  O  
  32  60
Cartesian
  5.0222134590148926  2.6387302875518799 11.3239250183105469
  9.8629236221313477  2.5702521800994873 11.2789440155029297
  4.9910674095153809  7.8027791976928711 11.2305326461791992
  0.0427680872380733  7.8056859970092773 11.2381601333618164
  2.4030816555023193  2.6511194705963135 12.6562595367431641
  7.3769173622131348  2.5862159729003906 12.5470638275146484
  2.3675143718719482  7.8061108589172363  9.9260177612304688
  7.3116083145141602  7.8074154853820801  9.9278697967529297
  4.9322175979614258  2.5769929885864258 14.0684270858764648
  9.8695497512817383  2.5751399993896484 14.0412311553955078
  4.9463601112365723  7.7292470932006836 14.0548639297485352
  9.8653955459594727  7.7380590438842773 14.0455265045166016
  2.4543530941009521  2.5725591182708740 15.4681777954101562
  7.3958005905151367  2.5671977996826172 15.4813776016235352
  2.4301140308380127  7.7255063056945801 12.6591644287109375
  7.3669362068176270  7.7243323326110840 12.6846361160278320
  4.9316091537475586  2.5690188407897949 16.8808498382568359
  9.8631067276000977  2.5728814601898193 16.8647041320800781
  4.9455280303955078  7.7094898223876953 16.8982963562011719
  9.8684225082397461  7.7271690368652344 16.8614482879638672
  2.4545364379882812  2.5691025257110596 18.2950134277343750
  7.3894462585449219  2.5724725723266602 18.2922306060791016
  2.4441468715667725  7.7274918556213379 15.4608840942382812
  7.3874316215515137  7.7319526672363281 15.4682655334472656
  5.0109939575195312  2.4692952632904053 19.7045917510986328
  0.0693624466657639  2.4628400802612305 19.6955852508544922
  4.9047574996948242  7.7992458343505859 19.5763645172119141
  0.0168681554496288  7.6545176506042480 19.6459751129150391
  2.4143469333648682  2.5514099597930908 21.0808868408203125
  7.3324408531188965  2.5355029106140137 21.0478210449218750
  2.4673786163330078  7.7296180725097656 18.3749370574951172
  7.3621959686279297  7.7055168151855469 18.2542686462402344
  8.2500495910644531  1.7110763788223267 11.3010330200195312
  3.3187804222106934  8.5292625427246094 11.2144584655761719
  8.2647085189819336  8.5263261795043945 11.2035923004150391
  4.0536794662475586  3.3842036724090576 12.6170501708984375
  9.0009460449218750  3.4108154773712158 12.6993856430053711
  0.8415300250053406  1.6965494155883789 12.7001495361328125
  5.7766985893249512  1.6862250566482544 12.6607475280761719
  0.8131213188171387  8.5327968597412109  9.8875970840454102
  5.7378067970275879  8.5300855636596680  9.8953571319580078
  1.5984653234481812  3.3871963024139404 11.3007068634033203
  6.5670776367187500  3.4054512977600098 11.2917423248291016
  1.6037967205047607  6.8394145965576172 11.2702121734619141
  6.5510025024414062  6.8447289466857910 11.2551012039184570
  3.2745411396026611  1.7467317581176758 14.0577630996704102
  8.2217187881469727  1.7514986991882324 14.0428991317749023
  3.2363381385803223  8.5066041946411133 14.0966777801513672
  8.1672153472900391  8.5082101821899414 14.0912265777587891
  4.1028652191162109  3.3420286178588867 15.4895095825195312
  9.0524606704711914  3.3473286628723145 15.4947977066040039
  4.0941481590270996  6.9082112312316895 12.6374139785766602
  9.0390958786010742  6.8943223953247070 12.6290664672851562
  0.8030816912651062  1.7793570756912231 15.4882850646972656
  5.7390604019165039  1.7743861675262451 15.4855098724365234
  0.8509262204170227  8.5364160537719727 12.6914863586425781
  5.7753629684448242  8.5363626480102539 12.6969118118286133
  1.6014596223831177  3.3776187896728516 14.1035938262939453
  6.5728626251220703  3.3684225082397461 14.0381155014038086
  1.6876132488250732  6.9165024757385254 14.0758600234985352
  6.6246910095214844  6.9246354103088379 14.0672645568847656
  3.2803773880004883  1.7861912250518799 16.9077243804931641
  8.2187414169311523  1.7898582220077515 16.9148330688476562
  3.2794575691223145  8.5029716491699219 16.9004669189453125
  8.2192659378051758  8.5309095382690430 16.9246540069580078
  4.0667476654052734  3.3880453109741211 18.2837200164794922
  9.0070829391479492  3.3951904773712158 18.2845153808593750
  4.1018395423889160  6.9679450988769531 15.5068931579589844
  9.0326547622680664  6.9454002380371094 15.5227384567260742
  0.8367933630943298  1.7517908811569214 18.2814502716064453
  5.7744741439819336  1.7622617483139038 18.2761611938476562
  0.8136335015296936  8.5073671340942383 15.5345602035522461
  5.7592878341674805  8.4884777069091797 15.5185728073120117
  1.6371978521347046  3.3582494258880615 16.9190673828125000
  6.5713143348693848  3.3513395786285400 16.9183654785156250
  1.6327154636383057  6.9480061531066895 16.8793334960937500
  6.5304517745971680  6.9427771568298340 16.8703117370605469
  3.2657516002655029  1.7515411376953125 19.7399368286132812
  8.2007293701171875  1.7485563755035400 19.7460117340087891
  3.3598725795745850  8.5365209579467773 19.6509914398193359
  4.1440253257751465  6.9136743545532227 18.3121509552001953
  8.9919738769531250  6.9138431549072266 18.3080348968505859
  0.8453797698020935  1.7568545341491699 21.0859165191650391
  5.7884140014648438  1.7643594741821289 21.0813503265380859
  0.7773504853248596  8.6087112426757812 18.2853240966796875
  5.7506475448608398  8.5395174026489258 18.2962074279785156
  1.6648669242858887  3.4536244869232178 19.7292308807373047
  6.5989875793457031  3.4461984634399414 19.7273807525634766
  1.5696983337402344  6.9114265441894531 19.6627063751220703
  6.5519800186157227  6.9422931671142578 19.7577247619628906
  8.1727075576782227  8.0773200988769531 20.9051361083984375
  6.6994113922119141  7.9396767616271973 20.8686237335205078
