Co O 
 1.0000000000000000
     9.8752183914184570    0.0000000000000000    0.0000000000000000
     0.0000000000000000   10.2948179244995117   -2.8146429061889648
     0.0000000000000000    0.0000000000000000   33.7757110595703125
 Co  O  
  32  60
Cartesian
  5.2815427780151367  3.0967285633087158 11.3521118164062500
  0.0888585969805717  2.3194994926452637 11.3681144714355469
  4.8530464172363281  7.7667860984802246 11.2304916381835938
  9.7963485717773438  7.7090754508972168 11.2309761047363281
  2.4181609153747559  2.5083463191986084 12.6531515121459961
  7.5258421897888184  2.6123893260955811 12.5941686630249023
  2.0807220935821533  7.9722104072570801  9.9681282043457031
  7.0144920349121094  8.0685920715332031  9.9499521255493164
  4.9601845741271973  2.5815913677215576 14.0126581192016602
  0.0317190997302532  2.5526807308197021 14.1201114654541016
  4.9288773536682129  7.7414250373840332 14.0587501525878906
  0.0004525812400971  7.7346463203430176 14.0957288742065430
  2.4782733917236328  2.5646817684173584 15.4742298126220703
  7.4181947708129883  2.5802977085113525 15.4485950469970703
  2.4294438362121582  7.7341594696044922 12.6994419097900391
  7.3771200180053711  7.7492518424987793 12.6802186965942383
  4.9569802284240723  2.5633349418640137 16.8561611175537109
  0.0105395242571831  2.5508279800415039 16.9139766693115234
  4.9275183677673340  7.7280254364013672 16.8649005889892578
  9.8735494613647461  7.7299804687500000 16.9302387237548828
  2.4591131210327148  2.5378119945526123 18.2775173187255859
  7.3801131248474121  2.5632665157318115 18.2639808654785156
  2.4598567485809326  7.7377085685729980 15.5207242965698242
  7.3927526473999023  7.7111606597900391 15.4779357910156250
  4.8730878829956055  2.5716197490692139 19.7306365966796875
  9.8072595596313477  2.5362856388092041 19.7356739044189453
  4.8653512001037598  8.0454845428466797 19.6383762359619141
  0.1265586167573929  7.4195933341979980 19.7278442382812500
  2.0876481533050537  2.2225704193115234 21.0078105926513672
  7.0355291366577148  2.3014144897460938 20.9967880249023438
  2.4877936840057373  7.7703523635864258 18.3844013214111328
  7.3797297477722168  7.7120108604431152 18.2523002624511719
  8.4345331192016602  1.5913053750991821 11.2383470535278320
  3.2359297275543213  8.6743669509887695 11.1942920684814453
  8.2090215682983398  8.6743650436401367 11.1924896240234375
  4.0037479400634766  3.5019528865814209 12.5446233749389648
  9.1660709381103516  3.5115776062011719 12.6756086349487305
  0.8768587112426758  1.4471253156661987 12.8533658981323242
  5.8595008850097656  1.6866565942764282 12.5550479888916016
  0.4471494853496552  8.2945480346679688  9.5026321411132812
  5.3693084716796875  8.3666944503784180  9.4993486404418945
  1.6776815652847290  2.8546087741851807 10.9562816619873047
  6.8895683288574219  3.6659917831420898 11.1529741287231445
  1.5590000152587891  6.7277450561523438 11.3071756362915039
  6.4821820259094238  6.7882609367370605 11.2677364349365234
  3.3286948204040527  1.6302701234817505 14.0583286285400391
  8.2384777069091797  1.6505699157714844 14.0382699966430664
  3.2713243961334229  8.6721496582031250 14.0832834243774414
  8.2332630157470703  8.6592502593994141 14.0830516815185547
  4.1282072067260742  3.4979562759399414 15.4348812103271484
  9.0529270172119141  3.4950098991394043 15.5030202865600586
  4.0830359458923340  6.8054656982421875 12.6563539505004883
  9.0244722366333008  6.8072142601013184 12.6738023757934570
  0.8293475508689880  1.6093320846557617 15.5250473022460938
  5.7746586799621582  1.6602692604064941 15.4032611846923828
  0.8529070019721985  8.6870517730712891 12.7652282714843750
  5.7987599372863770  8.7302703857421875 12.7505750656127930
  1.5911402702331543  3.5344610214233398 14.1668891906738281
  6.6190471649169922  3.5177857875823975 13.9993314743041992
  1.6467677354812622  6.7971835136413574 14.1122875213623047
  6.5782704353332520  6.7902636528015137 14.0593852996826172
  3.3228721618652344  1.6305620670318604 16.8692455291748047
  8.2159776687622070  1.6354172229766846 16.8792896270751953
  3.2797350883483887  8.6825513839721680 16.9377231597900391
  8.2284593582153320  8.6704988479614258 16.8721733093261719
  4.1078534126281738  3.4781768321990967 18.2830963134765625
  9.0359354019165039  3.4925577640533447 18.3113117218017578
  4.0817680358886719  6.7987904548645020 15.4796886444091797
  9.0514783859252930  6.7926669120788574 15.5018014907836914
  0.8796870112419128  1.5592604875564575 18.2197055816650391
  5.8081564903259277  1.6051030158996582 18.1876602172851562
  0.8116720914840698  8.6538009643554688 15.5334825515747070
  5.7527976036071777  8.6620435714721680 15.4596738815307617
  1.6650441884994507  3.4917666912078857 16.8980579376220703
  6.6005368232727051  3.5118060111999512 16.8559665679931641
  1.6484582424163818  6.8163237571716309 16.9766845703125000
  6.5053305625915527  6.7242918014526367 16.8013591766357422
  3.2849738597869873  1.6125016212463379 19.7657337188720703
  8.1953392028808594  1.6212525367736816 19.7646274566650391
  3.3114769458770752  8.7846498489379883 19.7885837554931641
  4.1109819412231445  6.8201255798339844 18.3205623626708984
  8.9701757431030273  6.7725195884704590 18.3277988433837891
  0.4430683553218842  1.9463982582092285 21.4710807800292969
  5.4003806114196777  1.9806032180786133 21.4588413238525391
  0.8277556896209717  8.6751861572265625 18.3666152954101562
  5.8324117660522461  8.7579994201660156 18.1522026062011719
  1.5680378675460815  3.5061688423156738 19.6882324218750000
  6.5069885253906250  3.5593214035034180 19.6651706695556641
  1.6986176967620850  6.7720861434936523 19.8146953582763672
  6.6458034515380859  7.2240047454833984 20.0139255523681641
  8.5951128005981445  8.3601512908935547 20.6101016998291016
  7.6604900360107422  7.4664373397827148 21.0737991333007812
