Ti O 
 1.0000000000000000
     5.6345129013061523    0.0000000000000000    0.4725390076637268
     0.6229159832000732   11.3753890991210938    0.2277999967336655
     0.0000000000000000    0.0000000000000000   31.7600288391113281
 Ti  O  
  40  16
Cartesian
  0.9545619487762451  2.0924403667449951 12.6318511962890625
  4.8016095161437988  8.9245691299438477 12.5819492340087891
  4.2053599357604980  6.4035429954528809 10.8988695144653320
  2.5302307605743408  4.4069724082946777 11.7852859497070312
  0.6903572678565979 11.0766296386718750 11.1772174835205078
  5.3651185035705566  4.6782655715942383 12.8323373794555664
  3.0754272937774658  0.2500589191913605 11.9222908020019531
  1.9947794675827026  9.2467832565307617 13.1518278121948242
  1.4137797355651855  7.1112470626831055 11.4240074157714844
  4.8204565048217773  2.5601284503936768 11.1574239730834961
  5.4532656669616699  2.1315517425537109 15.9338445663452148
  3.7383623123168945  8.9549541473388672 15.3378047943115234
  3.1417684555053711  6.6598405838012695 13.5337047576904297
  1.4516942501068115  4.4038314819335938 14.5368185043334961
  5.4303007125854492 11.2116365432739258 14.3213815689086914
  4.3569412231445312  4.7093567848205566 15.6197519302368164
  2.0438423156738281  0.1750793009996414 14.6935224533081055
  1.0280702114105225  9.2573146820068359 15.9473695755004883
  0.3580705225467682  7.0147433280944824 14.0982990264892578
  3.7194983959197998  2.4579155445098877 13.7793130874633789
  4.4178714752197266  2.0922603607177734 18.7336425781250000
  2.7678177356719971  8.9107742309570312 18.1696910858154297
  2.0976512432098389  6.6682772636413574 16.3207988739013672
  0.4591947793960571  4.3752980232238770 17.3468437194824219
  4.4034543037414551 11.2162971496582031 17.1207485198974609
  3.3298985958099365  4.7140970230102539 18.4189853668212891
  1.0512669086456299  0.1463554203510284 17.5033473968505859
  5.6186094284057617  9.2654991149902344 19.2067451477050781
  5.0221724510192871  6.9705610275268555 17.4028339385986328
  2.6842610836029053  2.4187753200531006 16.5789089202880859
  3.3172812461853027  1.9899260997772217 21.3550090789794922
  1.7119613885879517  8.8138189315795898 20.8439197540283203
  1.1310871839523315  6.6786189079284668 19.1161193847656250
  5.0619049072265625  4.3000535964965820 20.5904617309570312
  3.3953158855438232 11.2473268508911133 19.9081363677978516
  2.4357900619506836  4.8490152359008789 21.0906352996826172
 -0.0269933603703976  0.1431556344032288 20.2547073364257812
  4.5550169944763184  9.5219888687133789 21.8417415618896484
  3.9587299823760986  7.0008130073547363 20.1585903167724609
  1.5485070943832397  2.4576959609985352 19.4084968566894531
  1.1274495124816895 -0.0155350277200341 12.7198467254638672
  5.1094651222229004  6.7924184799194336 12.6547260284423828
  2.9078223705291748  2.3117718696594238 11.7574481964111328
  3.4115333557128906  4.5480060577392578 13.7010498046875000
  0.1011438518762589  0.0065698558464646 15.5763702392578125
  5.6971578598022461  9.1178750991821289 14.5168399810791016
  4.0544962882995605  6.8286018371582031 15.4886178970336914
  1.7749210596084595  2.2860884666442871 14.6332578659057617
  2.4017789363861084  4.5437550544738770 16.4637680053710938
  4.7261042594909668  0.0022164946421981 18.8116550445556641
  4.7058224678039551  9.0970249176025391 17.2518253326416016
  3.0631961822509766  6.8076233863830566 18.2235698699951172
  0.7280631065368652  2.2641122341156006 17.4069080352783203
  1.3750811815261841  4.5655307769775391 19.3203601837158203
  3.6510546207427979  9.1330537796020508 20.0856037139892578
  5.2297677993774414  2.2386097908020020 20.7551536560058594
