Ti O 
 1.0000000000000000
     5.6345129013061523    0.0000000000000000    0.4725390076637268
     0.6229159832000732   11.3753890991210938    0.2277999967336655
     0.0000000000000000    0.0000000000000000   31.7600288391113281
 Ti  O  
  40  16
Cartesian
  0.8515423536300659  2.1202335357666016 12.6512517929077148
  4.8004131317138672  8.9387063980102539 12.5643939971923828
  4.1519927978515625  6.6481781005859375 10.7948827743530273
  2.4918222427368164  4.3807702064514160 11.7281122207641602
  0.7956427931785583 11.2216329574584961 11.1428241729736328
  5.3681201934814453  4.6950750350952148 12.7516622543334961
  3.0735380649566650  0.1869482547044754 11.9379987716674805
  2.0371336936950684  9.2454080581665039 13.1269636154174805
  1.4027389287948608  6.9913864135742188 11.3462438583374023
  4.7355780601501465  2.4423115253448486 11.0133552551269531
  5.4417595863342285  2.1271896362304688 15.9635143280029297
  3.7614982128143311  8.9532814025878906 15.3452672958374023
  3.1377956867218018  6.6701240539550781 13.5092058181762695
  1.4661021232604980  4.4029040336608887 14.5082950592041016
  5.4312801361083984 11.2139816284179688 14.3621854782104492
  4.3546733856201172  4.7010488510131836 15.5706748962402344
  2.0520794391632080  0.1556326150894165 14.7280464172363281
  1.0190563201904297  9.2495813369750977 15.9371414184570312
  0.3807876110076904  6.9907507896423340 14.1036491394042969
  3.7169928550720215  2.4358813762664795 13.7362318038940430
  4.4203801155090332  2.1141343116760254 18.7767486572265625
  2.7454648017883301  8.9348468780517578 18.1647777557373047
  2.1067750453948975  6.6760468482971191 16.3310413360595703
  0.4508216977119446  4.3944997787475586 17.3124561309814453
  4.4056763648986816 11.2245111465454102 17.1702251434326172
  3.3292162418365479  4.7112870216369629 18.3786525726318359
  1.0370832681655884  0.1470714956521988 17.5322647094726562
  5.6225371360778809  9.2556295394897461 19.2310085296630859
  4.9989318847656250  6.9721450805664062 17.3955707550048828
  2.6957085132598877  2.4229581356048584 16.5495338439941406
  3.4020297527313232  2.1084365844726562 21.4979915618896484
  1.7222783565521240  8.9357223510742188 20.9214363098144531
  1.0884727239608765  6.6800904273986816 19.1409568786621094
  5.0630493164062500  4.3630185127258301 20.5749855041503906
  3.3924806118011475 11.2305383682250977 19.9885215759277344
  2.3313727378845215  4.7038922309875488 21.1248054504394531
  0.0099307866767049  0.1666897237300873 20.3126945495605469
  4.6092991828918457  9.2772750854492188 21.9449100494384766
  3.9597828388214111  6.9879064559936523 20.1765918731689453
  1.6513643264770508  2.4299311637878418 19.3891353607177734
  1.1270389556884766 -0.0013062359066680 12.7775621414184570
  5.0967612266540527  6.8214569091796875 12.6272544860839844
  2.8218154907226562  2.2728903293609619 11.8056840896606445
  3.4216723442077637  4.5480036735534668 13.6269779205322266
  0.1016871631145477  0.0011469804449007 15.5997457504272461
  5.7245874404907227  9.1035585403442383 14.4759845733642578
  4.0596103668212891  6.8251419067382812 15.4637031555175781
  1.7645802497863770  2.2733113765716553 14.6218690872192383
  2.4013011455535889  4.5490884780883789 16.4402847290039062
  4.7158946990966797  0.0022241161204875 18.8853073120117188
  4.7008962631225586  9.1003255844116211 17.2766265869140625
  3.0356194972991943  6.8220710754394531 18.2643795013427734
  0.7384918928146362  2.2768161296844482 17.4182186126708984
  1.3760278224945068  4.5512590408325195 19.2625045776367188
  3.6645808219909668  9.1042699813842773 20.1129932403564453
  5.3153843879699707  2.2772774696350098 20.7069301605224609
