Cr O 
 1.0000000000000000
     7.9986119270324707    0.0000000000000000    1.6820659637451172
    -3.2802350521087646    7.2950568199157715   -1.6820659637451172
     0.0000000000000000    0.0000000000000000   34.3984031677246094
 Cr  O  
  32  26
Cartesian
  2.7429418563842773  4.6847977638244629 10.9522628784179688
  0.3410636484622955  1.0056043863296509 10.9585809707641602
 -0.5255193114280701  6.7706341743469238 13.5095643997192383
  5.1753921508789062  3.1486911773681641 15.1677026748657227
  2.3320958614349365  4.9846858978271484 14.3448781967163086
 -0.0158094242215157  1.3265310525894165 14.3330450057983398
 -0.0647777020931244  6.5678830146789551 10.1158456802368164
  5.5921711921691895  2.9006488323211670 11.7953853607177734
  5.4252724647521973  0.3029455542564392 13.8139209747314453
 -0.1636242419481277  3.9637210369110107 12.1016941070556641
  2.5332286357879639  2.2917873859405518 16.5061264038085938
  4.8128056526184082  5.9123239517211914 16.5461902618408203
  2.6858139038085938  2.2146315574645996 12.9589824676513672
  5.0336084365844727  5.8538050651550293 12.9578981399536133
  5.3205614089965820  0.4670711457729340 17.3686733245849609
 -0.3311038911342621  4.0887994766235352 15.6865568161010742
  2.1473438739776611  5.0406723022460938 17.8881473541259766
 -0.1108131036162376  1.4299510717391968 17.8477745056152344
 -0.6942028403282166  7.1054520606994629 20.4311294555664062
  4.8276276588439941  3.3460955619812012 22.3186683654785156
  1.9532986879348755  5.1119422912597656 21.4046649932861328
 -0.3621674478054047  1.4892469644546509 21.4282417297363281
 -0.6163019537925720  6.8720159530639648 16.9991779327392578
  5.0191283226013184  3.2479188442230225 18.7234706878662109
  5.2632217407226562  0.5811932086944580 20.8628768920898438
 -0.5129837393760681  4.1818761825561523 19.2668514251708984
  1.9324792623519897  2.5735313892364502 23.3948211669921875
 -2.8448410034179688  6.4227538108825684 22.0659046173095703
  2.3597629070281982  2.3581068515777588 20.0384902954101562
  4.6989030838012695  6.0096879005432129 20.0830230712890625
  4.5531296730041504  0.7301596999168396 24.2541675567626953
 -0.8058556914329529  4.1774244308471680 22.8617019653320312
  1.4827499389648438  6.8068704605102539 13.9435310363769531
 -0.8206075429916382  3.1617355346679688 13.9126424789428711
  3.4210035800933838  0.3911564350128174 13.4371633529663086
  5.8320312500000000  4.0497879981994629 13.4068298339843750
  2.7984201908111572  5.8978104591369629 16.1264934539794922
  0.5214832425117493  2.2602069377899170 16.0793018341064453
  7.3971138000488281  0.3436677157878876 14.2715587615966797
  1.8012542724609375  4.0122671127319336 12.5746822357177734
  4.5434899330139160  2.3227899074554443 16.9377613067626953
 -1.1654969453811646  5.9205846786499023 15.2656297683715820
 -2.5339791774749756  6.7709565162658691 13.0992078781127930
  3.1690974235534668  3.1575396060943604 14.7550163269042969
  1.8924956321716309  1.4383666515350342 18.2632713317871094
  4.1661362648010254  5.0758986473083496 18.3211898803710938
  1.2825325727462769  6.9369239807128906 20.9183654785156250
 -1.1789379119873047  3.2979879379272461 21.0537357330322266
  3.2835574150085449  0.5644524097442627 20.3687496185302734
  5.4864387512207031  4.1653237342834473 20.5145645141601562
  7.2474536895751953  0.5727786421775818 21.2942581176757812
  1.5048892498016357  4.1568250656127930 19.6265716552734375
 -2.6927225589752197  7.0199074745178223 20.1232948303222656
  2.8665127754211426  3.3394241333007812 21.8393096923828125
  0.1282210201025009  5.0121259689331055 17.4758911132812500
  5.8816313743591309  1.4206672906875610 19.1086540222167969
 -1.0274624824523926  5.5984735488891602 24.1714096069335938
 -2.3837037086486816  5.2758841514587402 23.6143817901611328
