Cr O 
 1.0000000000000000
     7.9986119270324707    0.0000000000000000    1.6820659637451172
    -3.2802350521087646    7.2950568199157715   -1.6820659637451172
     0.0000000000000000    0.0000000000000000   34.3984031677246094
 Cr  O  
  32  26
Cartesian
  2.2597746849060059  5.0159897804260254 10.9544582366943359
 -0.0949112102389336  1.3651846647262573 10.9571723937988281
 -0.5786806344985962  6.8302130699157715 13.5670661926269531
  5.0616602897644043  3.1837146282196045 15.2500743865966797
  2.2506299018859863  5.0211052894592285 14.4091539382934570
 -0.1079509556293488  1.3734310865402222 14.4082479476928711
 -0.5674362778663635  6.8244109153747559 10.1167459487915039
  5.0732479095458984  3.1758933067321777 11.7956399917602539
  5.3008747100830078  0.4520377814769745 13.9408931732177734
 -0.3386071026325226  4.1003103256225586 12.2575483322143555
  2.4739701747894287  2.2789728641510010 16.5510311126708984
  4.8330049514770508  5.9261889457702637 16.5509948730468750
  2.4792594909667969  2.2739467620849609 13.0989818572998047
  4.8431925773620605  5.9240069389343262 13.0988178253173828
  5.2952613830566406  0.4570291340351105 17.3921928405761719
 -0.3443959355354309  4.1045012474060059 15.7104063034057617
  2.2444310188293457  5.0166344642639160 17.8484363555908203
 -0.1145643144845963  1.3709441423416138 17.8477058410644531
 -0.5754700899124146  6.8355050086975098 20.4528865814208984
  5.0555024147033691  3.2003991603851318 22.1345539093017578
  2.2342309951782227  5.0203480720520020 21.2957134246826172
 -0.1187622845172882  1.3702865839004517 21.2918815612792969
 -0.5771626234054565  6.8364925384521484 17.0071067810058594
  5.0620427131652832  3.1906647682189941 18.6896400451660156
  5.2963633537292480  0.4628901183605194 20.8277530670166016
 -0.3405476510524750  4.1132335662841797 19.1476535797119141
  2.4488608837127686  2.2831265926361084 23.4290237426757812
  4.8900232315063477  5.9904685020446777 23.5484886169433594
  2.4658467769622803  2.2739560604095459 19.9895210266113281
  4.8280110359191895  5.9194993972778320 19.9843463897705078
  5.2775955200195312  0.4600963890552521 24.2774257659912109
 -0.4540504515171051  4.2042026519775391 22.6544513702392578
  1.4117232561111450  6.8291645050048828 13.9979524612426758
 -0.9474815130233765  3.1817269325256348 13.9980487823486328
  3.3067677021026611  0.4965693652629852 13.5295162200927734
  5.6658964157104492  4.1449098587036133 13.5345220565795898
  2.8381481170654297  5.9344058036804199 16.1269569396972656
  0.4790521264076233  2.2865035533905029 16.1269874572753906
  7.2603425979614258  0.4274397790431976 14.3734769821166992
  1.6223069429397583  4.0745229721069336 12.6941919326782227
  4.4694323539733887  2.2731735706329346 16.9680309295654297
 -1.1694273948669434  5.9213919639587402 15.2862300872802734
 -2.5713138580322266  6.8547043800354004 13.1572523117065430
  3.0684134960174561  3.2071230411529541 14.8391160964965820
  1.8816425800323486  1.3610246181488037 18.2730045318603516
  4.2402663230895996  5.0086398124694824 18.2713928222656250
  1.4096039533615112  6.8004908561706543 20.8651542663574219
 -0.9185013771057129  3.1505374908447266 20.8896141052246094
  3.3051404953002930  0.4686766266822815 20.4047241210937500
  5.6661367416381836  4.1128406524658203 20.4018554687500000
  7.2892694473266602  0.4411530196666718 21.2442207336425781
  1.6514539718627930  4.0854582786560059 19.5584678649902344
 -2.5657718181610107  6.8395628929138184 20.0410423278808594
  3.0959563255310059  3.2114539146423340 21.7207012176513672
  0.2492619305849075  5.0222616195678711 17.4301815032958984
  5.8892102241516113  1.3737516403198242 19.1123428344726562
 -1.1901230812072754  5.5477786064147949 24.0997066497802734
 -2.2945857048034668  6.2220511436462402 23.7412433624267578
