Ni O 
 1.0000000000000000
     8.1986503601074219    0.0000000000000000    1.0289880037307739
     4.0591487884521484    9.4208240509033203    0.8346049785614014
     0.0000000000000000    0.0000000000000000   33.1766052246093750
 Ni  O  
  36  43
Cartesian
  5.5926241874694824  5.7908620834350586 21.6392936706542969
  1.4040633440017700  2.9755656719207764 21.8685398101806641
  9.7837467193603516  8.8068838119506836 21.4113922119140625
  6.9196305274963379  7.7329092025756836 22.4432525634765625
  3.6633675098419189  4.0650081634521484 20.5630722045898438
  7.5198850631713867  1.3016312122344971 21.8024559020996094
  4.0650668144226074  7.7135338783264160 22.1130867004394531
  7.7462191581726074  4.0733880996704102 21.0740375518798828
  3.6797573566436768  1.2906396389007568 21.3152980804443359
  5.9493889808654785  5.0713682174682617 18.9275951385498047
  1.7415238618850708  2.1621484756469727 19.2147254943847656
 10.1516551971435547  7.9879474639892578 18.5968666076660156
  7.8767018318176270  6.8929405212402344 20.1162967681884766
  4.0287070274353027  3.2407231330871582 17.7439804077148438
  7.9923763275146484  0.3919759094715118 19.0226154327392578
  3.7595314979553223  6.8891234397888184 19.6228141784667969
  8.1159906387329102  3.2654500007629395 18.2268028259277344
  3.9312207698822021  0.3767936825752258 18.4989528656005859
  6.2830033302307129  4.3298497200012207 16.1847991943359375
  2.0997800827026367  1.4038486480712891 16.4676074981689453
 10.5513563156127930  7.2147078514099121 15.7943716049194336
  8.2220468521118164  6.1481895446777344 17.3488845825195312
  4.3686661720275879  2.4842972755432129 15.0032892227172852
  4.2526607513427734  9.0106954574584961 16.1099510192871094
  4.1257815361022949  6.1329607963562012 16.9068679809570312
  8.4564714431762695  2.5203754901885986 15.4813604354858398
  8.3325071334838867  9.0048789978027344 16.5439739227294922
  6.6017560958862305  3.6319627761840820 13.4430160522460938
  2.4169251918792725  0.6750412583351135 13.6632604598999023
 10.5177593231201172  6.5359988212585449 13.0925493240356445
  8.5347766876220703  5.3041329383850098 14.5029458999633789
  5.1263670921325684  1.7926446199417114 12.5959606170654297
  4.7458958625793457  8.1970643997192383 13.4504470825195312
  4.3941321372985840  5.2175526618957520 14.1738767623901367
  7.9038839340209961  1.5696579217910767 13.0472507476806641
  8.2815017700195312  8.0287609100341797 13.7297334671020508
  9.8210201263427734  3.8042974472045898 21.1802387237548828
  5.5741429328918457  0.7922988533973694 21.7473430633544922
  5.7418971061706543  4.1582636833190918 20.5718975067138672
  1.5289567708969116  1.2530397176742554 20.8948268890380859
  7.4865760803222656  6.0113554000854492 22.0195064544677734
 11.6702976226806641  8.8519735336303711 21.7382755279541016
  7.7664222717285156  2.9286742210388184 22.8388671875000000
  7.8754191398620605  8.8532762527465820 21.2394866943359375
  3.6610670089721680  5.9909138679504395 21.5468864440917969
  5.8235058784484863  6.6929712295532227 19.8440380096435547
  1.9632585048675537  2.9869902133941650 17.5254650115966797
  5.9684906005859375  0.1657143682241440 18.7163448333740234
  9.9222660064697266  7.2116179466247559 20.3226356506347656
  6.0909352302551270  3.4973526000976562 17.8781394958496094
  1.8739277124404907  0.6023277044296265 18.1707897186279297
  7.8114018440246582  5.0828099250793457 19.1700019836425781
  3.5987794399261475  2.1850550174713135 19.4674091339111328
  3.8019754886627197  7.9670362472534180 17.8388423919677734
  8.0783329010009766  2.1956739425659180 20.0281124114990234
  8.2998352050781250  7.9730043411254883 18.3656539916992188
  4.0790553092956543  5.0706644058227539 18.7239952087402344
  6.1589646339416504  5.9020261764526367 17.2305068969726562
  2.3284864425659180  2.2198998928070068 14.7642583847045898
 10.4005355834960938  8.7671890258789062 16.8674678802490234
 10.2875347137451172  6.4062995910644531 17.5016384124755859
  6.3815450668334961  2.7178504467010498 15.2381515502929688
  6.2876024246215820  9.2320041656494141 16.3273849487304688
  8.1527099609375000  4.3411207199096680 16.3624114990234375
  3.9572072029113770  1.4045112133026123 16.6889190673828125
  4.1988320350646973  7.1300635337829590 15.0434923171997070
  8.4443159103393555  1.4305911064147949 17.2620697021484375
  8.6832427978515625  7.2132811546325684 15.5441198348999023
  4.4152359962463379  4.3003168106079102 15.9751520156860352
  6.4396777153015137  5.2529945373535156 14.5320901870727539
 11.0104455947875977  8.1084899902343750 14.0659770965576172
  2.4795570373535156  5.6010708808898926 13.7575788497924805
  6.5519108772277832  8.7348203659057617 13.2481002807617188
  8.5058994293212891  3.2987623214721680 13.5136413574218750
  4.3315196037292480  0.5613721013069153 13.7750568389892578
  0.5162361860275269  0.6148785948753357 13.4621658325195312
  8.7108659744262695  6.4080629348754883 12.7859306335449219
  4.7084178924560547  3.5519964694976807 12.9982700347900391
  3.1998517513275146  2.9245619773864746 22.2603549957275391
