Cr O 
 1.0000000000000000
     8.4924907684326172    0.0000000000000000    0.0187919996678829
     4.1738448143005371   11.7088270187377930    0.4329900145530701
     0.0000000000000000    0.0000000000000000   32.2963218688964844
 Cr  O  
  48  48
Cartesian
  3.1909351348876953  3.9415326118469238 11.0278139114379883
  5.2776980400085449  9.7958679199218750 11.2442197799682617
  7.4371957778930664  3.9415173530578613 11.0372304916381836
  9.5239009857177734  9.7958612442016602 11.2535877227783203
  1.0633978843688965  1.3488595485687256 11.8828840255737305
  3.1503121852874756  7.2031416893005371 12.0994071960449219
  5.3096346855163574  1.3488608598709106 11.8922872543334961
  7.3965969085693359  7.2031812667846680 12.1087732315063477
  5.2739729881286621  4.6813778877258301 13.0303001403808594
  7.3607988357543945 10.5359191894531250 13.2466802597045898
  9.5202617645263672  4.6813998222351074 13.0397472381591797
 11.6070184707641602 10.5359334945678711 13.2560682296752930
  3.1667499542236328  2.1009428501129150 13.9595069885253906
  5.2538013458251953  7.9549632072448730 14.1759805679321289
  7.4131217002868652  2.1009571552276611 13.9687891006469727
  9.5000333786010742  7.9549593925476074 14.1853313446044922
  3.1520369052886963  5.3975310325622559 15.0850143432617188
  5.2389049530029297 11.2524223327636719 15.3009939193725586
  7.3982415199279785  5.3975768089294434 15.0945835113525391
  9.4847621917724609 11.2525291442871094 15.3103399276733398
  1.0442404747009277  2.8361768722534180 15.9995470046997070
  3.1319625377655029  8.6900510787963867 16.2152385711669922
  5.2905821800231934  2.8363876342773438 16.0090084075927734
  7.3774080276489258  8.6899662017822266 16.2249050140380859
  3.1816401481628418  0.2751924395561218 16.9203033447265625
  5.2687845230102539  6.1280894279479980 17.1378326416015625
  7.4265379905700684  0.2763538360595703 16.9283924102783203
  9.5147457122802734  6.1277346611022949 17.1465129852294922
  3.1656684875488281  3.5671007633209229 18.0529785156250000
  5.2540779113769531  9.4206514358520508 18.2663726806640625
  7.4117960929870605  3.5678057670593262 18.0613269805908203
  9.4968786239624023  9.4222536087036133 18.2710380554199219
  1.0547741651535034  1.0134068727493286 18.9633522033691406
  3.1407976150512695  6.8588113784790039 19.1767559051513672
  5.2959051132202148  1.0146653652191162 18.9687137603759766
  7.3790192604064941  6.8616528511047363 19.1847553253173828
  5.2711176872253418  4.2811255455017090 20.1251163482666016
  7.3503112792968750 10.1346759796142578 20.3490905761718750
  9.5244607925415039  4.2781944274902344 20.1380825042724609
 11.6774768829345703 10.1610116958618164 20.2454452514648438
  3.1698381900787354  1.8021507263183594 21.0344276428222656
  5.2826089859008789  7.6274294853210449 21.2668399810791016
  7.4337797164916992  1.7932521104812622 21.0373916625976562
  9.4592370986938477  7.5585880279541016 21.2558193206787109
  3.1127684116363525  4.9250783920288086 22.2497901916503906
  5.2255015373229980 10.7698497772216797 22.4770202636718750
  7.4379358291625977  5.0161747932434082 22.1359138488769531
  3.0709509849548340  0.4359909296035767 21.9347877502441406
  4.1901416778564453  5.5841627120971680 11.5702457427978516
  6.2771863937377930 11.4386405944824219 11.7867994308471680
  8.4364051818847656  5.5841546058654785 11.5796451568603516
 10.5234460830688477 11.4386510848999023 11.7962312698364258
  4.2206921577453613  3.0139524936676025 12.4514713287353516
  6.3076171875000000  8.8684339523315430 12.6680641174316406
  8.4669084548950195  3.0139720439910889 12.4608793258666992
 10.5539035797119141  8.8684415817260742 12.6774997711181641
  4.2377929687500000  0.4602457582950592 13.4154214859008789
  6.3245568275451660  6.3149342536926270 13.6317491531372070
  8.4838991165161133  0.4602688252925873 13.4247865676879883
 10.5707540512084961  6.3149771690368652 13.6410484313964844
  2.1012289524078369  3.7448275089263916 14.5152502059936523
  4.1880073547363281  9.5992412567138672 14.7321977615356445
  6.3474969863891602  3.7448170185089111 14.5247392654418945
  8.4344472885131836  9.5992975234985352 14.7416439056396484
  2.1172449588775635  1.1928073167800903 15.4486465454101562
  4.2039752006530762  7.0481109619140625 15.6651353836059570
  6.3639850616455078  1.1924713850021362 15.4583959579467773
  8.4502105712890625  7.0481424331665039 15.6744461059570312
  4.2182102203369141  4.4791245460510254 16.5647716522216797
  6.3049659729003906 10.3332080841064453 16.7825241088867188
  8.4644565582275391  4.4790062904357910 16.5739669799804688
 10.5514240264892578 10.3326835632324219 16.7925758361816406
  4.2354245185852051  1.9213299751281738 17.5002250671386719
  6.3225812911987305  7.7787041664123535 17.7158775329589844
  8.4809598922729492  1.9212570190429688 17.5088291168212891
 10.5676517486572266  7.7787899971008301 17.7268238067626953
  2.0923733711242676  5.2152004241943359 18.6029739379882812
  4.1715474128723145 11.0610084533691406 18.8290901184082031
  6.3406624794006348  5.2139320373535156 18.6121673583984375
  8.4291324615478516 11.0664253234863281 18.8294906616210938
  2.1043429374694824  2.6474702358245850 19.5319156646728516
  4.1733374595642090  8.5160341262817383 19.7526416778564453
  6.3489146232604980  2.6470279693603516 19.5444107055664062
  8.4471206665039062  8.5169982910156250 19.7636356353759766
  2.1272938251495361  0.0975266844034195 20.4501094818115234
  4.2067933082580566  5.9533782005310059 20.6608581542968750
  6.3520884513854980  0.1246856600046158 20.4106655120849609
  8.4596109390258789  5.9597225189208984 20.6869144439697266
  4.2204217910766602  3.3845601081848145 21.5595321655273438
  6.2916235923767090  9.2496318817138672 21.7565441131591797
  8.4337005615234375  3.3730020523071289 21.5807380676269531
 10.6407041549682617  8.6946735382080078 21.4981250762939453
  4.2424159049987793 10.0500755310058594 23.7382373809814453
  4.1637701988220215  9.4440689086914062 22.9858036041259766
  2.1528127193450928  4.1958117485046387 23.5270252227783203
  8.4798774719238281 10.0478267669677734 23.7402381896972656
