Cr O 
 1.0000000000000000
     8.4924907684326172    0.0000000000000000    0.0187919996678829
     4.1738448143005371   11.7088270187377930    0.4329900145530701
     0.0000000000000000    0.0000000000000000   32.2963218688964844
 Cr  O  
  48  48
Cartesian
  4.2406177520751953  3.8519997596740723 10.7117271423339844
  5.3683528900146484  9.5540771484375000 11.1740312576293945
  7.3245725631713867  3.6877410411834717 10.9003391265869141
  9.6302766799926758  9.6867399215698242 11.0181560516357422
  0.8645600080490112  1.0388473272323608 11.8055706024169922
  3.1067996025085449  7.0863904953002930 11.9267034530639648
  5.1796450614929199  1.2639939785003662 11.7930631637573242
  7.2645258903503418  6.9337549209594727 11.9751558303833008
  5.3456258773803711  4.6291546821594238 13.1312265396118164
  7.4180169105529785 10.4243631362915039 13.1746397018432617
  9.4706020355224609  4.5164241790771484 12.8116197586059570
 11.5231733322143555 10.3997726440429688 13.1340627670288086
  3.0443038940429688  2.0401852130889893 13.9019060134887695
  5.2260179519653320  7.8660602569580078 14.1038789749145508
  7.3431744575500488  2.0415108203887939 13.9366817474365234
  9.4841365814208984  7.8491182327270508 14.0676288604736328
  2.9909999370574951  5.3154277801513672 14.9686555862426758
  5.1702775955200195 11.1720008850097656 15.2305765151977539
  7.5093293190002441  5.3675513267517090 15.2209892272949219
  9.4885311126708984 11.2038049697875977 15.3205099105834961
  9.4694700241088867  2.8218576908111572 16.0824337005615234
  3.1174697875976562  8.6491632461547852 16.2174491882324219
  5.2146797180175781  2.8052334785461426 16.0502853393554688
  7.4129867553710938  8.6228723526000977 16.1713142395019531
  3.1261274814605713  0.2428682297468185 16.9072284698486328
  5.0666613578796387  6.0759797096252441 17.0915660858154297
  7.4122347831726074  0.2550007998943329 17.0136127471923828
  9.6380929946899414  6.1583466529846191 17.3603248596191406
  3.1509523391723633  3.6102609634399414 18.2020454406738281
  5.3132872581481934  9.4303007125854492 18.2284736633300781
  7.2914643287658691  3.5430984497070312 18.1861362457275391
  9.5095100402832031  9.3592891693115234 18.3641452789306641
  1.0396211147308350  1.0202059745788574 19.0598068237304688
  3.1685843467712402  7.0599136352539062 19.6041145324707031
  5.1849465370178223  0.9589186310768127 19.0856895446777344
  7.1350073814392090  6.7656140327453613 19.1552524566650391
  5.2782554626464844  4.3053770065307617 20.3872070312500000
  7.4189996719360352 10.0786714553833008 20.3882942199707031
  9.3981256484985352  4.2475976943969727 20.2053813934326172
 11.7067766189575195 10.0155935287475586 20.4762344360351562
  3.0497114658355713  1.7981674671173096 21.2809638977050781
  5.3350467681884766  7.8052926063537598 21.5291347503662109
  7.3728218078613281  1.6297187805175781 21.1960048675537109
  9.1606960296630859  7.2627315521240234 21.2708187103271484
  3.0829341411590576  5.0499691963195801 22.2820396423339844
  5.8706512451171875 11.0429935455322266 22.6110172271728516
  8.3328123092651367  4.7572460174560547 22.7517585754394531
  9.4374952316284180 11.3056907653808594 22.7225646972656250
  4.3607258796691895  5.5928273200988770 11.5876073837280273
  6.2114815711975098 11.2715988159179688 11.7255096435546875
  8.2732810974121094  5.3456287384033203 11.3763637542724609
 10.4008312225341797 11.3440780639648438 11.7015199661254883
  4.2222213745117188  2.9564197063446045 12.4629545211791992
  6.4141249656677246  8.6956758499145508 12.5933332443237305
  8.4415388107299805  2.7946431636810303 12.2894983291625977
 10.4992494583129883  8.7190046310424805 12.4844932556152344
  4.1845884323120117  0.4005368351936340 13.4118080139160156
  6.4205737113952637  6.2522287368774414 13.7138061523437500
  8.3240404129028320  0.3473907113075256 13.3799839019775391
 10.4716434478759766  6.1841845512390137 13.4318532943725586
  1.9188419580459595  3.6659717559814453 14.4268236160278320
  4.1139187812805176  9.5058078765869141 14.6209754943847656
  6.3954591751098633  3.7202198505401611 14.6293802261352539
  8.4941329956054688  9.5263996124267578 14.6757678985595703
  2.0012443065643311  1.1506739854812622 15.4295654296875000
  4.0772533416748047  6.9677901268005371 15.5463027954101562
  6.3364362716674805  1.1691315174102783 15.5046453475952148
  8.6271867752075195  7.0139021873474121 15.7462291717529297
  4.0171380043029785  4.4278197288513184 16.5235996246337891
  6.3030242919921875 10.2839183807373047 16.6733970642089844
  8.5060882568359375  4.5044221878051758 16.7927646636962891
 10.5523338317871094 10.2961521148681641 16.8389186859130859
  4.1531023979187012  1.9092953205108643 17.5685939788818359
  6.2248725891113281  7.7059626579284668 17.5684680938720703
  8.4359006881713867  1.9312195777893066 17.6183128356933594
 10.7611551284790039  7.7935690879821777 17.9271545410156250
  2.1665804386138916  5.3464570045471191 18.9487781524658203
  4.1950001716613770 11.0604963302612305 18.9134445190429688
  6.0480237007141113  5.1294364929199219 18.6160488128662109
  8.3707799911499023 10.9983978271484375 18.8237113952636719
  2.1065320968627930  2.6782326698303223 19.6695995330810547
  4.5389060974121094  8.5196332931518555 19.8332290649414062
  6.2656207084655762  2.5961055755615234 19.7327766418457031
  8.2954435348510742  8.3622875213623047 19.7387332916259766
  2.1664855480194092  0.0742131248116493 20.4436016082763672
  4.3098139762878418  6.0789980888366699 21.0417881011962891
 10.3858003616333008 11.6611766815185547 21.0389595031738281
  7.9618277549743652  5.7293186187744141 20.6911830902099609
  4.1214194297790527  3.4306397438049316 21.8260002136230469
  6.5371680259704590  9.2821102142333984 22.0662155151367188
  8.5576686859130859  3.1683521270751953 21.7057094573974609
 10.8352136611938477  8.2473392486572266 21.0178947448730469
  8.4871368408203125  0.4707495272159576 22.5175209045410156
  3.9483714103698730 10.7005252838134766 22.7070598602294922
  9.8416013717651367  5.9573802947998047 22.7329044342041016
  3.5010275840759277  0.2336563169956207 22.6204662322998047
