Fe O 
 1.0000000000000000
     8.2171297073364258    0.0000000000000000   -4.2744579315185547
    -0.6420570015907288    7.8080720901489258    2.8531761169433594
     0.0000000000000000    0.0000000000000000   37.4564247131347656
 Fe  O  
  30  35
Cartesian
  3.0988395214080811  0.9705042243003845 13.2776470184326172
  6.8863854408264160  4.8747115135192871 12.5673580169677734
  6.0599441528320312  7.3668065071105957 14.4736051559448242
  2.2715640068054199  3.4642086029052734 15.1831827163696289
  1.5650461912155151  5.8164114952087402 16.9272270202636719
  5.9950046539306641  1.9087171554565430 13.3624782562255859
  1.4618242979049683  0.4857008159160614 15.9522762298583984
  5.2477521896362305  4.3957853317260742 15.2310895919799805
  4.5654864311218262  6.8338875770568848 17.0215072631835938
  0.7758700847625732  2.9275190830230713 17.7275810241699219
  4.5079545974731445  1.4606839418411255 16.0307750701904297
  0.0767067223787308  5.3704042434692383 19.5926189422607422
 -0.0005895617068745  0.0082878777757287 18.5616359710693359
  3.7851455211639404  3.9230816364288330 17.8375129699707031
  3.0867385864257812  6.3385028839111328 19.6820602416992188
  7.5071682929992676  2.4326722621917725 16.1050033569335938
  2.9979765415191650  0.9515279531478882 18.6712779998779297
  6.7910585403442383  4.8838357925415039 17.9609737396240234
  6.0781464576721191  7.2977066040039062 19.7642898559570312
  2.2790448665618896  3.4087798595428467 20.4803104400634766
  1.5845172405242920  5.8604998588562012 22.3750438690185547
  6.0098075866699219  1.9730875492095947 18.7134742736816406
  1.5742100477218628  0.4347152709960938 21.3313999176025391
  5.3229756355285645  4.3981318473815918 20.5761947631835938
  4.5472822189331055  6.7909278869628906 22.4686374664306641
  0.8483219742774963  2.9357092380523682 23.2290763854980469
  4.4261627197265625  1.3624943494796753 21.4946422576904297
  0.1401170045137405  5.3720879554748535 24.9794998168945312
  0.1770935505628586 -0.0784862712025642 23.9860286712646484
  3.7395961284637451  3.9261503219604492 23.3668823242187500
  4.7850399017333984  0.3481687307357788 12.4327373504638672
  0.3580648303031921  4.2517051696777344 15.9952373504638672
  4.2150979042053223  2.6210196018218994 14.3036365509033203
 -0.2139113247394562  6.5229563713073730 17.8667621612548828
  3.3459804058074951  5.1530504226684570 16.0417556762695312
  7.7716345787048340  1.2549948692321777 12.4799833297729492
  2.7694022655487061  7.5046682357788086 17.9489898681640625
  7.1931290626525879  3.6024343967437744 14.3917331695556641
  2.5533180236816406  2.2601931095123291 16.8230113983154297
  6.3372497558593750  6.1607160568237305 16.1112823486328125
  6.4465131759643555  0.6696619391441345 15.1940250396728516
  2.0190744400024414  4.5646100044250488 18.7579383850097656
  1.1413669586181641  7.1562776565551758 20.5029354095458984
  5.5711832046508789  3.2467086315155029 16.9571743011474609
  4.9888644218444824  5.5447635650634766 18.8386955261230469
  1.2050924301147461  1.6470396518707275 19.5594902038574219
  4.7915186882019043  0.3278205692768097 17.7345123291015625
  0.3596870303153992  4.1945552825927734 21.3138446807861328
  4.2457027435302734  2.6219530105590820 19.6572628021240234
 -0.2216582596302032  6.5240035057067871 23.1626472473144531
  3.3722679615020752  5.1638240814208984 21.4063549041748047
  7.7769141197204590  1.3173743486404419 17.8746585845947266
  2.8204255104064941  7.5621814727783203 23.2530307769775391
  7.2529759407043457  3.6380674839019775 19.6945686340332031
  2.5702152252197266  2.3326494693756104 22.1741199493408203
  6.3336009979248047  6.1889543533325195 21.4721965789794922
  6.4900569915771484  0.1336389780044556 20.1779193878173828
  1.9757511615753174  4.5051021575927734 23.9975109100341797
  4.9735174179077148  5.4782543182373047 24.1079750061035156
  0.9634189605712891  7.1606860160827637 25.8369026184082031
  4.7634878158569336  0.3907377719879150 23.0400848388671875
  6.4234952926635742  2.1802999973297119 21.5687179565429688
 -0.2200118601322174  6.5582318305969238 28.4958133697509766
  1.1586811542510986  1.6192173957824707 24.7914314270019531
  4.2286705970764160  2.6426088809967041 24.9088878631591797
