Fe O 
 1.0000000000000000
     8.2171297073364258    0.0000000000000000   -4.2744579315185547
    -0.6420570015907288    7.8080720901489258    2.8531761169433594
     0.0000000000000000    0.0000000000000000   37.4564247131347656
 Fe  O  
  30  35
Cartesian
  3.8050732612609863  1.5675272941589355 13.1674442291259766
  7.5080399513244629  5.3515739440917969 12.3560934066772461
  7.0174350738525391  0.0165695883333683 11.5560350418090820
  2.4760932922363281  3.9551866054534912 14.9935340881347656
  1.8631509542465210  6.1986761093139648 16.8397731781005859
  6.4047131538391113  2.1786131858825684 13.4112758636474609
  1.7465574741363525  0.7734748721122742 15.8410501480102539
  5.3321170806884766  4.6122441291809082 14.9308929443359375
  4.7618393898010254  7.0767192840576172 16.8145084381103516
  1.0505020618438721  3.1623554229736328 17.6013088226318359
  4.7460360527038574  1.7141613960266113 16.2373695373535156
  0.2158508002758026  5.7079038619995117 19.5233974456787109
  0.2225952446460724  0.1906578093767166 18.5465641021728516
  3.9224174022674561  4.1949558258056641 17.7178649902343750
  3.2498519420623779  6.4818153381347656 19.9376602172851562
  7.7297339439392090  2.4185388088226318 16.2267513275146484
  3.1255483627319336  1.1540135145187378 18.9123630523681641
  6.8585081100463867  4.7626276016235352 17.7863426208496094
  6.1214046478271484  7.1640763282775879 19.6274662017822266
  2.2617585659027100  3.5097644329071045 20.6945037841796875
  1.5331002473831177  5.9143557548522949 22.7909336090087891
  6.7358899116516113  1.2030062675476074 19.1531028747558594
  1.6968030929565430  0.3883952796459198 22.4120635986328125
  5.4121985435485840  3.5707564353942871 20.4778480529785156
  4.8133544921875000  5.5778012275695801 22.6734008789062500
  1.5023344755172729  2.7368867397308350 24.2508411407470703
  4.6910581588745117  0.2480202019214630 21.5599479675292969
 -0.2363619655370712  5.2148671150207520 25.2852382659912109
 -0.5087541937828064  7.3273129463195801 27.9323005676269531
  4.1442646980285645  2.3014309406280518 23.4203815460205078
  5.3433284759521484  0.7901042699813843 12.2339563369750977
  0.8485870957374573  4.7839455604553223 15.6660156250000000
  3.9176402091979980  3.3641600608825684 13.8260393142700195
 -0.2955369651317596  6.9406270980834961 17.7471485137939453
  3.7313823699951172  5.4273204803466797 16.0230941772460938
  0.0294854175299406  1.4980349540710449 16.7901191711425781
  3.0955553054809570  0.2373546063899994 14.4112243652343750
  6.8286452293395996  4.0905351638793945 13.6435842514038086
  2.8405110836029053  2.4721224308013916 16.5799388885498047
  6.5936985015869141  6.2733483314514160 15.8383054733276367
  6.3007779121398926  0.8930581808090210 15.0213518142700195
  1.7349005937576294  4.9144110679626465 18.4755287170410156
  1.3157160282135010  7.1717157363891602 20.3071022033691406
  5.8533325195312500  3.4192852973937988 16.6013431549072266
  4.7561616897583008  5.9866557121276855 18.6713695526123047
  1.2187128067016602  1.9174609184265137 19.3567428588867188
  4.7991104125976562  0.4703625440597534 17.9166107177734375
  0.3761779069900513  4.3198781013488770 20.9021701812744141
  3.8418796062469482  3.1464302539825439 19.4479904174804688
 -0.3559080064296722  6.4427442550659180 22.7384815216064453
  3.0886104106903076  5.3549113273620605 21.7153301239013672
  7.8469653129577637  0.8301573395729065 17.5395412445068359
  2.3729014396667480  7.5646519660949707 23.5040798187255859
  6.8641715049743652  3.3314402103424072 19.3682632446289062
  2.2369863986968994  2.3928494453430176 22.4649848937988281
  6.0086650848388672  5.3145537376403809 21.1762924194335938
  5.5266141891479492  7.2928295135498047 23.3831005096435547
  1.2986025810241699  4.6600894927978516 24.2287483215332031
  4.8299641609191895  4.0120563507080078 23.5992031097412109
  0.3591969013214111  6.6832423210144043 26.4179019927978516
  4.0003347396850586  0.4193648993968964 23.2791042327880859
  5.1654391288757324  2.1135823726654053 21.7250747680664062
 -0.3269435465335846  6.1971421241760254 29.1306056976318359
  0.2667446732521057  1.3624700307846069 24.7179183959960938
  3.2203125953674316  2.3809998035430908 24.9530467987060547
