Ni O 
 1.0000000000000000
     8.1986503601074219    0.0000000000000000    1.0289880037307739
     4.0591487884521484    9.4208240509033203    0.8346049785614014
     0.0000000000000000    0.0000000000000000   33.1766052246093750
 Ni  O  
  36  48
Cartesian
  5.6214137077331543  5.8662948608398438 21.5691223144531250
  1.4248570203781128  2.9064760208129883 21.8264923095703125
  9.8000917434692383  8.7801227569580078 21.4445285797119141
  7.7360596656799316  7.5260553359985352 22.9033489227294922
  3.6582617759704590  4.0651750564575195 20.5044784545898438
  7.5737719535827637  1.2569715976715088 21.7044410705566406
  3.2386741638183594  7.5254721641540527 22.3397998809814453
  7.7865276336669922  4.0647602081298828 21.0219974517822266
  3.6952943801879883  1.2571145296096802 21.2175312042236328
  5.9538946151733398  5.1027908325195312 18.9158134460449219
  1.7595311403274536  2.2013335227966309 19.1584186553955078
 10.1512985229492188  8.0020990371704102 18.6494770050048828
  7.8790683746337891  6.9459781646728516 20.1407451629638672
  4.0323710441589355  3.2798547744750977 17.6736335754394531
  8.0209751129150391  0.3992283344268799 19.0045814514160156
  3.7855875492095947  6.9463024139404297 19.6274909973144531
  8.1234064102172852  3.2801771163940430 18.1866340637207031
  3.9278268814086914  0.3986576199531555 18.4909019470214844
  6.2980265617370605  4.3369388580322266 16.1697559356689453
  2.1061310768127441  1.4346441030502319 16.3947792053222656
 10.4966659545898438  7.2285022735595703 15.8961687088012695
  8.2225112915039062  6.1544666290283203 17.3928546905517578
  4.4002389907836914  2.4964263439178467 14.9311056137084961
  4.2277798652648926  9.0314807891845703 16.0583992004394531
  4.1315913200378418  6.1545739173889160 16.8796997070312500
  8.4430093765258789  2.4964048862457275 15.4383792877197266
  8.3326911926269531  9.0315513610839844 16.5739936828613281
  6.6387357711791992  3.5904614925384521 13.4556083679199219
  2.4560925960540771  0.5527420043945312 13.6108732223510742
 10.8295221328735352  6.4766659736633301 13.2399406433105469
  8.5754842758178711  5.3562355041503906 14.5686588287353516
  4.3005638122558594  1.9726164340972900 12.2764101028442383
  4.6750497817993164  8.1267652511596680 13.3480005264282227
  4.4854021072387695  5.3554925918579102 14.0555591583251953
  0.9987223148345947  1.9725843667984009 11.8620395660400391
  8.5713911056518555  8.1280555725097656 13.8372974395751953
  9.8364086151123047  3.8158149719238281 21.1602153778076172
  5.6244282722473145  0.9532152414321899 21.5400600433349609
  9.5956602096557617  7.8453269004821777 23.0666370391845703
  5.7448887825012207  4.2241907119750977 20.5827903747558594
  1.5519447326660156  1.2742300033569336 20.8130321502685547
  7.4148035049438477  5.9215006828308105 21.8815345764160156
  3.2187554836273193  2.9150073528289795 22.1231384277343750
 11.6504659652709961  8.7986316680908203 21.7373027801513672
  7.8120088577270508  2.9149649143218994 22.6994552612304688
  7.9346818923950195  8.7988471984863281 21.2703399658203125
  3.8063664436340332  5.9220771789550781 21.4292545318603516
  5.8353648185729980  6.7422256469726562 19.8610076904296875
  1.9732841253280640  3.0124323368072510 17.4556751251220703
  5.9587607383728027  0.1484968662261963 18.8752212524414062
  9.9377393722534180  7.1974763870239258 20.3497905731201172
  6.0835137367248535  3.5289885997772217 17.8834400177001953
  1.8911746740341187  0.6320450901985168 18.1062850952148438
  7.8121442794799805  5.1041569709777832 19.1588134765625000
  3.6115353107452393  2.2132937908172607 19.3988723754882812
  3.8096768856048584  8.0033502578735352 17.8438644409179688
  8.1041917800903320  2.2135109901428223 19.9627017974853516
  8.2966156005859375  8.0030765533447266 18.4068546295166016
  4.0933156013488770  5.1042571067810059 18.6924934387207031
  6.1659822463989258  5.9151492118835449 17.2241306304931641
  2.3241832256317139  2.2060351371765137 14.6568145751953125
 10.3664760589599609  8.8068237304687500 16.9354209899902344
 10.2834358215332031  6.4243311882019043 17.5958824157714844
  6.4144606590270996  2.7085728645324707 15.2419033050537109
  6.2953224182128906  9.2771759033203125 16.1950759887695312
  8.1614160537719727  4.3310108184814453 16.3779487609863281
  3.9594457149505615  1.4344408512115479 16.6438369750976562
  4.1472673416137695  7.2164006233215332 15.1005029678344727
  8.4474067687988281  1.4345848560333252 17.2068672180175781
  8.6471414566040039  7.2167406082153320 15.6655187606811523
  4.4408855438232422  4.3308000564575195 15.9115896224975586
  6.5023107528686523  5.2364501953125000 14.5385789871215820
  2.6810042858123779  1.2463299036026001 11.8192529678344727
 10.7072372436523438  8.1377229690551758 14.2174987792968750
  2.4170546531677246  5.6002998352050781 13.9129686355590820
  6.6179618835449219  8.3285837173461914 13.6336746215820312
  8.5494890213012695  3.5254597663879395 13.5614671707153320
  4.3249254226684570  0.6000993251800537 13.7677545547485352
  4.4418015480041504  6.4717736244201660 12.3557233810424805
  0.6066609621047974  0.5993525385856628 13.3003940582275391
  9.0389966964721680  6.4726395606994629 12.9327983856201172
  4.7610311508178711  3.5257937908172607 13.0861091613769531
  4.6745872497558594  7.7736258506774902 23.7123546600341797
  6.0047287940979004  7.7710189819335938 23.8776359558105469
