Ni O 
 1.0000000000000000
     8.1986503601074219    0.0000000000000000    1.0289880037307739
     4.0591487884521484    9.4208240509033203    0.8346049785614014
     0.0000000000000000    0.0000000000000000   33.1766052246093750
 Ni  O  
  36  48
Cartesian
  5.6117730140686035  5.8648638725280762 21.6405506134033203
  1.4091351032257080  3.0223553180694580 21.9490280151367188
  9.8058767318725586  8.7821760177612305 21.4008464813232422
  7.5806112289428711  7.6728510856628418 22.8883819580078125
  3.6751053333282471  4.0572886466979980 20.4645252227783203
  7.6480960845947266  1.2319294214248657 21.7448654174804688
  3.3950006961822510  7.6727132797241211 22.3632164001464844
  7.7792868614196777  4.0573692321777344 20.9795951843261719
  3.6127889156341553  1.2320281267166138 21.2384624481201172
  5.9536986351013184  5.1063990592956543 18.9159183502197266
  1.7529166936874390  2.2323508262634277 19.2090396881103516
 10.1568460464477539  7.9832048416137695 18.6038589477539062
  7.8771710395812988  6.9192028045654297 20.1284217834472656
  4.0336833000183105  3.2730216979980469 17.6655941009521484
  8.0275106430053711  0.3973734676837921 18.9849491119384766
  3.7900924682617188  6.9191784858703613 19.6154880523681641
  8.1233386993408203  3.2730083465576172 18.1788520812988281
  3.9271459579467773  0.3973600864410400 18.4703235626220703
  6.3051409721374512  4.3077349662780762 16.1159934997558594
  2.1002438068389893  1.4403380155563354 16.4418888092041016
 10.5039300918579102  7.1892199516296387 15.8386116027832031
  8.2239446640014648  6.1471877098083496 17.3741188049316406
  4.3905520439147949  2.5054469108581543 14.9152956008911133
  4.2262821197509766  9.0205574035644531 16.0606727600097656
  4.1347527503967285  6.1471920013427734 16.8609104156494141
  8.4572687149047852  2.5054786205291748 15.4256763458251953
  8.3332405090332031  9.0205278396606445 16.5761432647705078
  6.6499519348144531  3.5413577556610107 13.3683910369873047
  2.4534251689910889  0.6276228427886963 13.6274204254150391
 10.8473863601684570  6.3968844413757324 13.1025304794311523
  8.5768842697143555  5.3665299415588379 14.5770950317382812
  4.6110911369323730  1.7718905210494995 12.2454481124877930
  4.6174378395080566  8.1777534484863281 13.3022623062133789
  4.4837670326232910  5.3665485382080078 14.0632467269897461
  8.9036197662353516  1.7718077898025513 12.7841033935546875
  8.6358175277709961  8.1778507232666016 13.8066129684448242
  9.8296165466308594  3.8312079906463623 21.2102279663085938
  5.6269083023071289  0.8998836874961853 21.5194473266601562
  9.6011533737182617  7.9657135009765625 23.0303688049316406
  5.7449407577514648  4.2592868804931641 20.5794677734375000
  1.5428680181503296  1.3559828996658325 20.8835697174072266
  7.4399876594543457  5.9494485855102539 21.8932857513427734
  3.2439060211181641  2.9843869209289551 22.1413040161132812
 11.6766824722290039  8.7735481262207031 21.6238307952880859
  7.7825894355773926  2.9843804836273193 22.7107639312744141
  7.9378933906555176  8.7735090255737305 21.1545982360839844
  3.7778172492980957  5.9494771957397461 21.4336776733398438
  5.8308100700378418  6.7209205627441406 19.8950443267822266
  1.9699175357818604  3.0167169570922852 17.4809932708740234
  5.9683227539062500  0.1389525383710861 18.7996788024902344
  9.9439306259155273  7.1852755546569824 20.2996940612792969
  6.0864763259887695  3.5230338573455811 17.8581943511962891
  1.8862317800521851  0.6430458426475525 18.1476402282714844
  7.8179049491882324  5.0989055633544922 19.1293239593505859
  3.6134617328643799  2.2160463333129883 19.4229526519775391
  3.8180222511291504  7.9851036071777344 17.8017215728759766
  8.0960922241210938  2.2160990238189697 19.9856166839599609
  8.2985239028930664  7.9851026535034180 18.3640270233154297
  4.0946278572082520  5.0989270210266113 18.6620368957519531
  6.1704149246215820  5.9028716087341309 17.1892795562744141
  2.3139495849609375  2.2355504035949707 14.7398185729980469
 10.3719863891601562  8.7776002883911133 16.8891601562500000
 10.2883052825927734  6.4024133682250977 17.5558032989501953
  6.4227795600891113  2.6960656642913818 15.1786470413208008
  6.2906165122985840  9.2837915420532227 16.2314472198486328
  8.1653671264648438  4.3220815658569336 16.3772697448730469
  3.9584083557128906  1.4350893497467041 16.6724967956542969
  4.1618885993957520  7.2073655128479004 15.0525217056274414
  8.4415359497070312  1.4350948333740234 17.2351398468017578
  8.6446971893310547  7.2073841094970703 15.6151628494262695
  4.4380135536193848  4.3220787048339844 15.9094762802124023
  6.5110745429992676  5.1707291603088379 14.4751338958740234
  2.6606645584106445  1.4642105102539062 11.9766979217529297
 10.7160911560058594  8.0731468200683594 14.1472349166870117
  2.4282677173614502  5.5881319046020508 13.8285541534423828
  6.6299638748168945  8.5145826339721680 13.5280351638793945
  8.5271863937377930  3.4462883472442627 13.5803279876708984
  4.3235359191894531  0.6528670787811279 13.8727264404296875
  4.4766206741333008  6.4383502006530762 12.3215198516845703
  0.5809158086776733  0.6528646349906921 13.4030132293701172
  9.0145254135131836  6.4381523132324219 12.8908138275146484
  4.7785534858703613  3.4462425708770752 13.1098451614379883
  4.6283988952636719  7.6676559448242188 24.1334896087646484
  5.9488520622253418  7.6676392555236816 24.2990016937255859
