V  O 
 1.0000000000000000
     9.0099115371704102    0.0000000000000000    0.0000000000000000
     0.0000000000000000    4.5063199996948242   -0.0023940000683069
     0.0000000000000000    0.0000000000000000   36.4647789001464844
 V   O  
  16  32
Cartesian
  2.1305897235870361  2.2605607509613037 22.1421413421630859
  7.2100377082824707  1.1929546594619751 22.4774436950683594
  2.1798856258392334  2.3643844127655029 18.9000473022460938
  6.6216082572937012  2.3019611835479736 19.0215244293212891
  0.6712552905082703  0.1565736234188080 23.7704982757568359
  4.9062376022338867  2.6603472232818604 22.2958488464355469
  0.0499700531363487  0.0459863208234310 20.2258014678955078
  4.3360362052917480  0.1180047467350960 20.3305187225341797
  2.1146805286407471  2.3148086071014404 15.9012117385864258
  6.6125431060791016  2.2999777793884277 15.9559316635131836
  2.3888344764709473  2.5682911872863770 12.9710369110107422
  6.6598577499389648  2.3702845573425293 13.0180797576904297
  8.8696956634521484  0.0924978032708168 17.2865772247314453
  4.4046621322631836  0.0347430966794491 17.2841262817382812
  8.6729249954223633  4.4197764396667480 14.2196006774902344
  4.5052771568298340  0.1604230105876923 14.1553239822387695
  3.0368938446044922  1.4633271694183350 20.4548225402832031
  7.6533198356628418  1.2438153028488159 20.6506347656250000
  3.4128577709197998  1.7757544517517090 23.2441310882568359
  7.8737783432006836  0.5908386111259460 24.0100917816162109
  0.7491530776023865  0.8738537430763245 22.0226097106933594
  5.4407711029052734  0.8304381966590881 21.9797267913818359
  0.8353643417358398  0.9700714349746704 18.8440742492675781
  5.2658128738403320  0.8975524306297302 18.8661460876464844
  6.5414285659790039  2.8830792903900146 23.0021858215332031
  1.1611044406890869  3.1517148017883301 20.5376453399658203
  5.5295085906982422  3.1647098064422607 20.4814643859863281
  3.4224486351013184  3.7500965595245361 21.8743972778320312
  1.0435003042221069  2.9089243412017822 23.6745243072509766
  3.4050488471984863  3.7269542217254639 18.8652687072753906
  8.0545854568481445  3.6963074207305908 18.8840866088867188
  2.9966862201690674  1.4360492229461670 14.1988992691040039
  7.5396790504455566  1.4498988389968872 14.3867244720458984
  3.0214319229125977  1.4510986804962158 17.3790512084960938
  7.5551924705505371  1.4187580347061157 17.4277667999267578
  0.7935812473297119  0.9643757939338684 15.7522954940795898
  5.2691473960876465  1.0070260763168335 15.8337841033935547
  5.4283127784729004  1.1795487403869629 12.6065893173217773
  1.2360111474990845  3.2154872417449951 17.3734188079833984
  5.6839714050292969  3.2199714183807373 17.4137363433837891
  1.2215394973754883  3.2306869029998779 14.1428041458129883
  5.8007612228393555  3.2683806419372559 14.3950271606445312
  3.4395363330841064  3.6790490150451660 15.7346439361572266
  7.9804220199584961  3.6415638923645020 15.8849229812622070
  3.5077602863311768  3.7466459274291992 12.5290584564208984
  7.9520282745361328  3.6138215065002441 12.5886516571044922
  5.0262346267700195  0.9874851107597351 26.4207782745361328
  4.5613050460815430  2.0869929790496826 26.7272319793701172
