V  O 
 1.0000000000000000
     9.0099115371704102    0.0000000000000000    0.0000000000000000
     0.0000000000000000    4.5063199996948242   -0.0023940000683069
     0.0000000000000000    0.0000000000000000   36.4647789001464844
 V   O  
  16  32
Cartesian
  2.3707983493804932  2.2121043205261230 22.0010662078857422
  6.7404699325561523  2.2653214931488037 22.1309890747070312
  2.2481393814086914  2.2543373107910156 18.9912376403808594
  6.7625246047973633  2.2556726932525635 18.9942340850830078
 -0.1311865746974945  0.1016339659690857 23.4511222839355469
  4.8692970275878906 -1.7040818929672241 21.8290462493896484
 -0.0101678660139441 -0.0048952605575323 20.5023345947265625
  4.5218224525451660 -0.0083484984934330 20.5201644897460938
  2.2436058521270752  2.2481226921081543 15.9664964675903320
  6.7721376419067383  2.2597157955169678 15.9556722640991211
  2.3696064949035645  2.3569693565368652 13.0317602157592773
  6.7278766632080078  2.2394387722015381 13.0634298324584961
 -0.0033522278536111 -0.0000122121273307 17.4692325592041016
  4.5088148117065430 -0.0007994211628102 17.4760074615478516
 -0.0539665780961514 -0.0389443822205067 14.4454021453857422
  4.5048661231994629 -0.0082600843161345 14.3806381225585938
  3.1427948474884033  1.3681504726409912 20.5212249755859375
  7.6674084663391113  1.3473852872848511 20.5032062530517578
  2.7274296283721924  1.4823515415191650 23.2817840576171875
  7.7628221511840820  1.3011705875396729 23.5645999908447266
  0.9022812247276306  0.8770753145217896 22.0864143371582031
  5.3948893547058105  0.8879934549331665 22.0383892059326172
  0.9097688198089600  0.9006919860839844 18.9921016693115234
  5.4070940017700195  0.8974706530570984 18.9928970336914062
  5.8123579025268555  3.1914503574371338 23.5265426635742188
  1.3268902301788330  3.1588985919952393 20.5022220611572266
  5.8441615104675293  3.1566369533538818 20.5075931549072266
  3.5401792526245117  3.6100199222564697 22.0388774871826172
  8.1448974609375000  3.6035313606262207 22.0425472259521484
  3.5976636409759521  3.6080977916717529 18.9906406402587891
  8.1018199920654297  3.6064674854278564 18.9890308380126953
  3.1281564235687256  1.3442931175231934 14.4058132171630859
  7.6418981552124023  1.3915390968322754 14.3906908035278320
  3.1594903469085693  1.3540749549865723 17.4714298248291016
  7.6626000404357910  1.3540477752685547 17.4704227447509766
  0.9225887656211853  0.9128694534301758 15.9594411849975586
  5.4076690673828125  0.8978031277656555 15.9489974975585938
  5.4973521232604980  0.9843807220458984 12.8959856033325195
  1.3491710424423218  3.1501979827880859 17.4714069366455078
  5.8467736244201660  3.1535747051239014 17.4713478088378906
  1.3715332746505737  3.1041414737701416 14.3803262710571289
  5.8614063262939453  3.1417510509490967 14.4048595428466797
  3.5997509956359863  3.6087858676910400 15.9464635848999023
  8.1000146865844727  3.6051440238952637 15.9566259384155273
  3.5152895450592041  3.5510208606719971 12.8754320144653320
  8.0688085556030273  3.5526983737945557 12.8621387481689453
  5.8496141433715820  0.8828052878379822 25.3498477935791016
  4.0574989318847656  2.4587190151214600 26.0995655059814453
