Ti O 
 1.0000000000000000
     8.6923570632934570    0.0000000000000000    0.0000000000000000
     8.6923570632934570    7.4976320266723633   -1.4815200567245483
     0.0000000000000000    0.0000000000000000   34.7231636047363281
 Ti  O  
  30  31
Cartesian
  7.2436280250549316  0.0000000000000000 14.1464605331420898
 11.5898065567016602  3.7488160133361816 13.4057006835937500
  1.4487290382385254  0.0000000000000000 14.1464605331420898
  5.7949075698852539  3.7488160133361816 13.4057006835937500
  4.3461785316467285  1.2496078014373779 14.8640804290771484
  8.6923570632934570  4.9984240531921387 14.1233196258544922
  7.2436280250549316  2.4992082118988037 15.5817012786865234
 11.5898065567016602  6.2480239868164062 14.8409414291381836
 10.1410770416259766  2.4992082118988037 15.5817012786865234
 14.4872560501098633  6.2480239868164062 14.8409414291381836
  0.0000000000000000  0.0000000000000000 17.0400810241699219
  4.3461785316467285  3.7488160133361816 16.2993202209472656
  2.8974580764770508  1.2496078014373779 17.7576999664306641
  7.2436366081237793  4.9984240531921387 17.0169410705566406
  5.7949075698852539  1.2496078014373779 17.7576999664306641
 10.1410856246948242  4.9984240531921387 17.0169410705566406
  8.6923570632934570  2.4992082118988037 18.4752864837646484
 13.0385351181030273  6.2480239868164062 17.7345275878906250
  7.2436280250549316  0.0000000000000000 19.9336662292480469
 11.5898065567016602  3.7488160133361816 19.1929054260253906
  1.4487290382385254  0.0000000000000000 19.9336662292480469
  5.7949075698852539  3.7488160133361816 19.1929054260253906
  4.3461785316467285  1.2496078014373779 20.6512851715087891
  8.6923570632934570  4.9984240531921387 19.9105262756347656
  7.2436280250549316  2.4992082118988037 21.3689060211181641
 11.5898065567016602  6.2480239868164062 20.6281471252441406
 10.1410770416259766  2.4992082118988037 21.3689060211181641
 14.4872560501098633  6.2480239868164062 20.6281471252441406
  0.0000000000000000  0.0000000000000000 22.8272514343261719
  4.3461785316467285  3.7488160133361816 22.0864925384521484
  6.9801015853881836  2.0069062709808350 13.5453796386718750
 11.3262805938720703  5.7557220458984375 12.8046197891235352
 10.4046125411987305  2.0069062709808350 13.5453796386718750
 14.7507905960083008  5.7557220458984375 12.8046197891235352
  8.6923570632934570  0.9846115112304688 15.3255510330200195
 13.0385351181030273  4.7334275245666504 14.5847911834716797
  2.6339232921600342  0.7572982907295227 15.7213459014892578
  6.9801015853881836  4.5061144828796387 14.9805850982666016
  6.0584335327148438  0.7572982907295227 15.7213459014892578
 10.4046125411987305  4.5061144828796387 14.9805850982666016
  8.6923570632934570  3.4838197231292725 16.7607574462890625
 13.0385351181030273  7.2326354980468750 16.0199966430664062
 11.3262805938720703  3.2565140724182129 17.1565837860107422
 15.6724586486816406  7.0053300857543945 16.4158248901367188
  6.0584335327148438  3.2565140724182129 17.1565837860107422
 10.4046125411987305  7.0053300857543945 16.4158248901367188
  4.3461785316467285  2.2342119216918945 18.9367580413818359
  8.6923570632934570  5.9830279350280762 18.1959972381591797
  6.9801015853881836  2.0069062709808350 19.3325500488281250
 11.3262805938720703  5.7557220458984375 18.5917911529541016
 10.4046125411987305  2.0069062709808350 19.3325500488281250
 14.7507905960083008  5.7557220458984375 18.5917911529541016
  8.6923570632934570  0.9846115112304688 21.1127223968505859
 13.0385351181030273  4.7334275245666504 20.3719615936279297
  2.6339232921600342  0.7572982907295227 21.5085506439208984
  6.9801015853881836  4.5061144828796387 20.7677917480468750
  6.0584335327148438  0.7572982907295227 21.5085506439208984
 10.4046125411987305  4.5061144828796387 20.7677917480468750
  8.6923570632934570  3.4838197231292725 22.5479621887207031
 13.0385351181030273  7.2326354980468750 21.8072032928466797
 11.3262805938720703  3.2565140724182129 22.9437904357910156
