Ti O 
 1.0000000000000000
     8.6923570632934570    0.0000000000000000    0.0000000000000000
     8.6923570632934570    7.4976320266723633   -1.4815200567245483
     0.0000000000000000    0.0000000000000000   34.7231636047363281
 Ti  O  
  30  31
Cartesian
  7.2767210006713867 -0.0647447481751442 14.2927455902099609
 11.6183948516845703  3.6807312965393066 13.5584564208984375
  1.4162689447402954 -0.0649501085281372 14.2964363098144531
  5.7616257667541504  3.6799736022949219 13.5554332733154297
  4.3380398750305176  1.5352693796157837 14.7747802734375000
  8.6918058395385742  5.2853899002075195 14.0367164611816406
  7.1623482704162598  2.5263357162475586 15.5580778121948242
 11.5052785873413086  6.2763757705688477 14.8271379470825195
 10.2162837982177734  2.5276961326599121 15.5659093856811523
 14.5657768249511719  6.2744755744934082 14.8242568969726562
 -0.0010226557496935  0.0675312429666519 16.9543533325195312
  4.3413710594177246  3.8159615993499756 16.2128047943115234
  2.9066751003265381  1.2740365266799927 17.7773132324218750
  7.2621436119079590  5.0150914192199707 17.0278129577636719
  5.7723670005798340  1.2656223773956299 17.7626266479492188
 10.1204519271850586  5.0217189788818359 17.0267467498779297
  8.6842880249023438  2.5416820049285889 18.4953670501708984
 13.0412931442260742  6.2896804809570312 17.7401733398437500
  7.2577304840087891  0.0195625964552164 19.9080924987792969
 11.5751972198486328  3.7722446918487549 19.1770515441894531
  1.4477294683456421  0.0362637229263783 19.9128017425537109
  5.7877502441406250  3.7680115699768066 19.1630878448486328
  4.3765487670898438  1.2341178655624390 20.6846389770507812
  8.6569204330444336  5.0263743400573730 19.9837474822998047
  7.2759571075439453  2.5700080394744873 21.3610115051269531
 11.5946235656738281  6.3149151802062988 20.6156806945800781
 10.2387714385986328  2.6050236225128174 21.5047512054443359
 14.4734954833984375  6.3173685073852539 20.6024608612060547
 -0.0243758037686348 -0.0679633319377899 22.6608753204345703
  4.2947301864624023  3.6977636814117432 21.9713039398193359
  6.3458704948425293  1.8666760921478271 13.5892219543457031
 10.6848640441894531  5.6150064468383789 12.8556118011474609
  2.3527452945709229  1.8620346784591675 13.5955333709716797
  6.6904597282409668  5.6185412406921387 12.8530883789062500
  8.6904077529907227  1.1680070161819458 15.2254066467285156
 13.0348491668701172  4.9165420532226562 14.4863271713256836
  2.6995422840118408  0.7998872399330139 15.7744531631469727
  7.0496864318847656  4.5489263534545898 15.0283031463623047
  5.9820928573608398  0.7945393323898315 15.7627725601196289
 10.3323478698730469  4.5502533912658691 15.0316162109375000
  8.6912517547607422  3.4886324405670166 16.7743015289306641
 13.0346632003784180  7.2414484024047852 16.0263977050781250
 11.3436374664306641  3.2927365303039551 17.1424045562744141
 15.6938724517822266  7.0413255691528320 16.3945026397705078
  6.0332002639770508  3.2900373935699463 17.1314086914062500
 10.3783168792724609  7.0455956459045410 16.3994541168212891
  4.3474340438842773  2.2349703311920166 18.9564590454101562
  8.6909990310668945  5.9847369194030762 18.2185535430908203
  6.9652247428894043  2.0278685092926025 19.3124141693115234
 11.3225650787353516  5.7980465888977051 18.5789756774902344
 10.4004030227661133  2.0608727931976318 19.3565998077392578
 14.7586641311645508  5.7824273109436035 18.5822868347167969
  8.7095117568969727  0.9653079509735107 21.0344581604003906
 13.0154466629028320  4.6840953826904297 20.2898521423339844
  2.6268117427825928  0.7514920234680176 21.4837589263916016
  6.8749251365661621  4.5114226341247559 20.8253116607666016
  6.1337685585021973  0.7483201026916504 21.5154933929443359
 10.4140596389770508  4.5453705787658691 20.7276382446289062
  8.6006612777709961  2.9030728340148926 22.5886631011962891
 13.0564661026000977  6.6534099578857422 21.8089942932128906
 11.5083169937133789  3.1586067676544189 22.8329315185546875
