Zn O 
 1.0000000000000000
     9.9938201904296875    0.0000000000000000    0.0000000000000000
     9.9938201904296875    7.4407730102539062    1.0092240571975708
     0.0000000000000000    0.0000000000000000   30.3796920776367188
 Zn  O  
  24  40
Cartesian
  8.7289781570434570  4.4891705513000488 14.6508331298828125
 18.7048645019531250  6.9511675834655762 11.7022142410278320
  8.6962080001831055  2.0784072875976562 12.6920890808105469
  6.2437310218811035  4.5581312179565430 12.2408018112182617
 16.2496929168701172  7.0117754936218262 14.1764612197875977
  6.2765679359436035  2.0674617290496826 15.2103700637817383
 11.2802009582519531  6.5937442779541016 14.5855741500854492
 11.2475290298461914  1.6172299385070801 10.6438131332397461
 11.2263898849487305  4.1981401443481445 12.6446304321289062
 13.7105484008789062  4.1872529983520508 15.1702337265014648
 13.7189102172851562  6.5884566307067871 12.1926012039184570
  3.7381310462951660  1.6981850862503052 13.1845188140869141
  8.7492151260375977  4.5725827217102051 19.6985530853271484
 18.7178401947021484  6.9749507904052734 16.7171058654785156
  8.7526063919067383  2.0204770565032959 17.6935863494873047
  6.2863793373107910  4.5688772201538086 17.2901515960693359
 16.2997875213623047  6.9500074386596680 19.2314815521240234
  6.2724618911743164  2.1544969081878662 20.1455612182617188
 11.1631736755371094  6.6120805740356445 19.6523647308349609
 11.2633991241455078  1.6603477001190186 15.6546258926391602
 11.2523221969604492  4.1450214385986328 17.7114810943603516
  4.4827504158020020  2.1422617435455322 21.3624496459960938
 13.7020845413208008  6.6553750038146973 17.1704635620117188
  3.6622571945190430  1.7164705991744995 18.1731719970703125
 18.3224372863769531  7.4008312225341797 13.6789617538452148
  8.3044071197509766  2.4177150726318359 14.7169971466064453
  6.6830506324768066  4.9457392692565918 14.2492160797119141
  6.6891002655029297  2.4787237644195557 12.1982593536376953
 11.6771278381347656  3.7313892841339111 15.6491889953613281
 11.7055282592773438  6.2352647781372070 12.5709962844848633
  1.6953569650650024  1.2536554336547852 13.6131124496459961
 13.3159294128417969  6.2561941146850586 15.1794147491455078
 13.3180665969848633  3.7493169307708740 13.1019392013549805
 10.8465490341186523  4.5062098503112793 14.6992664337158203
 10.8450431823730469  2.0348603725433350 12.6330976486206055
 14.1479072570800781  4.5532288551330566 12.1700496673583984
 14.1354684829711914  7.0591392517089844 14.2122192382812500
  4.1538019180297852  2.0732970237731934 15.2260990142822266
  9.1424579620361328  6.6206951141357422 14.6549692153930664
  9.1483287811279297  4.1096878051757812 12.5977401733398438
  5.8457427024841309  4.1607060432434082 15.1981763839721680
 15.8371076583862305  6.6184535026550293 12.1284780502319336
  5.8397741317749023  1.7103887796401978 13.1500148773193359
  8.3085966110229492  4.9035696983337402 16.7186565399169922
 18.2910861968994141  7.4293012619018555 18.7870750427246094
  6.6950678825378418  4.9232997894287109 19.3348712921142578
 16.6667957305908203  7.4339494705200195 16.2594871520996094
  6.6918978691101074  2.4741647243499756 17.2619037628173828
 11.6878108978271484  6.2212853431701660 17.6506443023681641
  1.7052835226058960  1.2324955463409424 18.6936531066894531
  3.3228271007537842  1.2847697734832764 16.1903133392333984
 13.3261547088623047  3.6167778968811035 18.0830860137939453
 10.8050022125244141  4.5232343673706055 19.7757244110107422
 10.8426780700683594  7.0012240409851074 16.7064132690429688
 10.8388204574584961  2.0111699104309082 17.7324314117431641
 14.1428041458129883  4.5392236709594727 17.2525196075439453
 14.2174949645996094  7.2019567489624023 19.2793941497802734
  9.1619215011596680  6.5915303230285645 19.7415885925292969
  9.1437683105468750  1.6401294469833374 15.6751976013183594
  9.1315793991088867  4.0995397567749023 17.6905803680419922
 15.8304147720336914  6.6559329032897949 17.2203235626220703
  5.8351364135742188  1.6688091754913330 18.3070640563964844
 13.2868900299072266  6.8095026016235352 20.4889316558837891
 12.5777854919433594  6.6725630760192871 18.3596572875976562
