Zn O 
 1.0000000000000000
     9.9938201904296875    0.0000000000000000    0.0000000000000000
     9.9938201904296875    7.4407730102539062    1.0092240571975708
     0.0000000000000000    0.0000000000000000   30.3796920776367188
 Zn  O  
  24  40
Cartesian
  8.7426147460937500  4.5830755233764648 14.5782604217529297
  8.7848825454711914  6.1184997558593750 11.7335262298583984
  8.7383022308349609  2.2297666072845459 12.6050090789794922
  6.0409688949584961  4.3870892524719238 12.2855205535888672
 16.2908706665039062  7.0580878257751465 13.7973680496215820
  6.3012466430664062  2.0805456638336182 15.1427078247070312
 11.3237886428833008  6.6013631820678711 14.5208969116210938
  0.6259184479713440  0.2263287454843521 10.8354616165161133
 11.2275600433349609  4.2703037261962891 12.6362352371215820
 13.6858463287353516  4.1200928688049316 15.2360200881958008
 13.8499736785888672  6.2056980133056641 12.2367639541625977
  3.6500306129455566  1.6286139488220215 13.2704257965087891
  8.7098560333251953  4.9855837821960449 19.5861835479736328
 18.6469497680664062  7.0623188018798828 16.6099586486816406
  8.7380514144897461  2.2081058025360107 17.5342369079589844
  6.3640613555908203  4.6070370674133301 17.2581768035888672
 16.3151817321777344  7.0713701248168945 19.2633380889892578
  5.5535035133361816  3.4772522449493408 19.8829917907714844
 11.0225315093994141  6.8192305564880371 19.8779602050781250
 11.2829885482788086  1.7492629289627075 15.7135229110717773
 11.5479869842529297  3.9424765110015869 18.7582397460937500
  4.7190871238708496  1.4895395040512085 20.8945960998535156
 13.8699140548706055  6.5977416038513184 17.1066665649414062
  3.7375187873840332  1.6112387180328369 18.1627845764160156
  8.3250083923339844 -0.0198473688215017 12.5199317932128906
  8.3600473403930664  2.5128309726715088 14.6274175643920898
  6.6673045158386230  4.9345607757568359 14.2120771408081055
  6.7494783401489258  2.5484759807586670 12.1273012161254883
 11.7311677932739258  3.7008068561553955 15.5902709960937500
 11.9002628326416016  6.2643713951110840 12.4744548797607422
  1.5721151828765869  1.2331610918045044 13.4148511886596680
 13.3517675399780273  6.2507977485656738 15.1565494537353516
 13.1559076309204102  3.5588192939758301 13.0101747512817383
 10.8721961975097656  4.5096893310546875 14.6747989654541016
 10.7986259460449219  1.8229750394821167 12.2284851074218750
 14.0281686782836914  4.1912240982055664 11.9627723693847656
 14.1661548614501953  7.0905666351318359 14.1925344467163086
  4.1713213920593262  2.0466866493225098 15.2316236495971680
  9.1227121353149414  6.6817412376403809 14.5635089874267578
  9.1982488632202148  4.2989854812622070 12.4449224472045898
  5.8198781013488770  4.1724739074707031 15.1854219436645508
 15.8069715499877930  6.3172183036804199 11.9619026184082031
  5.8777222633361816  1.7145035266876221 13.0394115447998047
  8.3552455902099609  4.9632434844970703 16.6913928985595703
  8.2417640686035156  0.2472735494375229 17.7658996582031250
  6.7172746658325195  4.9535903930664062 19.3608608245849609
  6.6542587280273438  0.0262977015227079 15.1844291687011719
  6.7116727828979492  2.5579850673675537 17.1614437103271484
 11.3730611801147461  5.9450120925903320 17.2469768524169922
  1.7720662355422974  1.2676608562469482 18.9006328582763672
  3.3281807899475098  1.2193186283111572 16.1702995300292969
 13.5735778808593750  3.6837651729583740 18.4547500610351562
 10.6056184768676758  4.8804235458374023 20.1220035552978516
 10.7424545288085938  7.1123538017272949 16.5924510955810547
 10.9413595199584961  2.1387529373168945 17.9623889923095703
 14.1915531158447266  4.4625258445739746 17.3100872039794922
 14.4381093978881836  7.2763166427612305 19.9441871643066406
  8.9842567443847656  6.9929842948913574 19.8842754364013672
  9.1877145767211914  1.7096087932586670 15.5845384597778320
  9.1304378509521484  4.1675376892089844 17.7203636169433594
 15.8648614883422852  6.7020869255065918 17.2286586761474609
  5.9163670539855957  1.9108951091766357 18.2735252380371094
 14.1782636642456055  7.1563658714294434 21.4209918975830078
 12.2671403884887695  6.4050173759460449 18.2797584533691406
