Ti O 
 1.0000000000000000
     5.6345129013061523    0.0000000000000000    0.4725390076637268
     0.6229159832000732   11.3753890991210938    0.2277999967336655
     0.0000000000000000    0.0000000000000000   31.7600288391113281
 Ti  O  
  40  18
Cartesian
  0.8527817726135254  2.1183865070343018 12.6495723724365234
  4.8057227134704590  8.9364614486694336 12.5602302551269531
  4.1548752784729004  6.6520867347717285 10.7971467971801758
  2.4972157478332520  4.3878293037414551 11.7232837677001953
  0.7869424223899841 11.2162370681762695 11.1382331848144531
  5.3672604560852051  4.6951117515563965 12.7544269561767578
  3.0814819335937500  0.1870974004268646 11.9333572387695312
  2.0365083217620850  9.2443161010742188 13.1250839233398438
  1.3990918397903442  6.9941930770874023 11.3475189208984375
  4.7347054481506348  2.4390010833740234 11.0180931091308594
  5.4427752494812012  2.1271080970764160 15.9636306762695312
  3.7612257003784180  8.9530553817749023 15.3434858322143555
  3.1391792297363281  6.6695446968078613 13.5110931396484375
  1.4644961357116699  4.4036321640014648 14.5079355239868164
  5.4321517944335938 11.2138328552246094 14.3593397140502930
  4.3553929328918457  4.7008829116821289 15.5697631835937500
  2.0529034137725830  0.1557915210723877 14.7266082763671875
  1.0196402072906494  9.2500400543212891 15.9374656677246094
  0.3784818649291992  6.9910712242126465 14.1002197265625000
  3.7174563407897949  2.4360053539276123 13.7353868484497070
  4.4175157546997070  2.1168372631072998 18.7760219573974609
  2.7459306716918945  8.9341564178466797 18.1636657714843750
  2.1074154376983643  6.6747207641601562 16.3330116271972656
  0.4488694369792938  4.3948702812194824 17.3139171600341797
  4.4053788185119629 11.2238216400146484 17.1694030761718750
  3.3315472602844238  4.7116513252258301 18.3802738189697266
  1.0364310741424561  0.1466865539550781 17.5305194854736328
  5.6233477592468262  9.2553501129150391 19.2315616607666016
  4.9973635673522949  6.9729990959167480 17.3965263366699219
  2.6961038112640381  2.4227430820465088 16.5485687255859375
  3.3853719234466553  2.1671948432922363 21.6521148681640625
  1.7255986928939819  8.9291467666625977 20.9192295074462891
  1.0900120735168457  6.6790900230407715 19.1374187469482422
  5.0601153373718262  4.3684349060058594 20.5804023742675781
  3.3914146423339844 11.2262678146362305 19.9771080017089844
  2.3302664756774902  4.6859879493713379 21.2847099304199219
  0.0115982135757804  0.1773239970207214 20.3148117065429688
  4.5996241569519043  9.2663660049438477 21.9454021453857422
  3.9608654975891113  6.9880423545837402 20.1723823547363281
  1.6496151685714722  2.4318289756774902 19.3813667297363281
  1.1262698173522949 -0.0012010135687888 12.7767820358276367
  5.0912089347839355  6.8201885223388672 12.6291170120239258
  2.8220877647399902  2.2723083496093750 11.8048944473266602
  3.4210429191589355  4.5470347404479980 13.6281747817993164
  0.1017674803733826  0.0010783869074658 15.5985584259033203
  5.7256555557250977  9.1039962768554688 14.4764289855957031
  4.0594811439514160  6.8250603675842285 15.4636554718017578
  1.7644903659820557  2.2732145786285400 14.6206331253051758
  2.4018297195434570  4.5486006736755371 16.4404869079589844
  4.7170166969299316  0.0023070427123457 18.8848457336425781
  4.7008538246154785  9.1012964248657227 17.2762317657470703
  3.0358240604400635  6.8210058212280273 18.2641677856445312
  0.7379052639007568  2.2759144306182861 17.4168167114257812
  1.3740646839141846  4.5538606643676758 19.2599239349365234
  3.6670815944671631  9.1041812896728516 20.1133060455322266
  5.3192276954650879  2.2741923332214355 20.7053012847900391
  2.3918254375457764  4.3271632194519043 23.4003314971923828
  2.9469704627990723  3.0032570362091064 23.6055126190185547
