Ti O 
 1.0000000000000000
     5.6345129013061523    0.0000000000000000    0.4725390076637268
     0.6229159832000732   11.3753890991210938    0.2277999967336655
     0.0000000000000000    0.0000000000000000   31.7600288391113281
 Ti  O  
  40  18
Cartesian
  1.0014573335647583  2.0321393013000488 12.7056398391723633
  4.8399434089660645  8.8612394332885742 12.6516351699829102
  4.2521424293518066  6.3217415809631348 10.9819812774658203
  2.5673708915710449  4.3523497581481934 11.8695888519287109
  0.7260509729385376 11.0129709243774414 11.2391796112060547
  5.4047651290893555  4.6191649436950684 12.9314804077148438
  3.1121091842651367  0.1949799656867981 11.9864454269409180
  2.0343110561370850  9.1931190490722656 13.2201852798461914
  1.4575034379959106  7.0450658798217773 11.5106925964355469
  4.8638639450073242  2.5117242336273193 11.2391061782836914
  5.4883904457092285  2.0914466381072998 15.9970884323120117
  3.7729840278625488  8.9035100936889648 15.4074220657348633
  3.1825037002563477  6.6101188659667969 13.6177492141723633
  1.4923757314682007  4.3580079078674316 14.6233348846435547
  5.4675855636596680 11.1597805023193359 14.3848161697387695
  4.3845071792602539  4.6730246543884277 15.7142686843872070
  2.0766308307647705  0.1311011314392090 14.7563428878784180
  1.0598516464233398  9.2128696441650391 16.0179309844970703
  0.3944960534572601  6.9611186981201172 14.1905937194824219
  3.7553851604461670  2.4070477485656738 13.8555974960327148
  4.4299077987670898  2.0671956539154053 18.7965316772460938
  2.7874765396118164  8.8814096450805664 18.2301120758056641
  2.1288897991180420  6.6289615631103516 16.4160728454589844
  0.4703437983989716  4.3433527946472168 17.4345474243164062
  4.4351310729980469 11.1739377975463867 17.1721172332763672
  3.3667883872985840  4.7050294876098633 18.5281810760498047
  1.0840926170349121  0.1045366376638412 17.5603828430175781
  5.6303348541259766  9.2407999038696289 19.2758121490478516
  5.0359907150268555  6.9486799240112305 17.5062465667724609
  2.7160611152648926  2.3873035907745361 16.6495018005371094
  3.3868949413299561  1.9196945428848267 21.4801712036132812
  1.7244395017623901  8.8918542861938477 20.9224224090576172
  1.1450114250183105  6.6310110092163086 19.2320880889892578
  5.0660109519958496  4.2105350494384766 20.7296752929687500
  3.4220626354217529 11.2119369506835938 19.9351100921630859
  2.3002114295959473  4.7000441551208496 21.1564769744873047
  0.0011861177626997  0.1023369804024696 20.3044528961181641
  4.5520567893981934  9.6612415313720703 21.9215736389160156
  4.1129431724548340  6.9992861747741699 20.3390483856201172
  1.6181234121322632  2.3963677883148193 19.4851970672607422
  1.7845938205718994 11.3022155761718750 13.0094547271728516
  5.1521420478820801  6.7311153411865234 12.7364854812622070
  2.9518020153045654  2.2596368789672852 11.8310289382934570
  3.4507036209106445  4.4969458580017090 13.7872505187988281
  0.7614217996597290 11.3414993286132812 15.8699932098388672
  5.7371234893798828  9.0659904479980469 14.5836257934570312
  4.0896954536437988  6.7845115661621094 15.5803756713867188
  1.8119747638702393  2.2402853965759277 14.7083587646484375
  2.4299254417419434  4.5081195831298828 16.5562305450439453
  5.3797025680541992 11.3523120880126953 19.0870761871337891
  4.7340331077575684  9.0613269805908203 17.3199806213378906
  3.0813167095184326  6.7979826927185059 18.3724784851074219
  0.7581750154495239  2.2217786312103271 17.4732322692871094
  1.3909906148910522  4.4868803024291992 19.3173542022705078
  3.6567308902740479  9.0830011367797852 20.1641960144042969
  5.2880663871765137  2.1373295783996582 20.7524375915527344
 -0.0472958125174046  6.0117816925048828 20.7999229431152344
  3.6087381839752197  3.7840802669525146 22.1325759887695312
