Zn O 
 1.0000000000000000
    10.2027044296264648    0.0000000000000000   -1.5765329599380493
     7.0872220993041992    4.6989479064941406   -1.5765329599380493
     0.0000000000000000    0.0000000000000000   39.1328506469726562
 Zn  O  
  24  22
Cartesian
  7.9649376869201660  4.0860481262207031 12.4316740036010742
  3.7064039707183838  1.1040599346160889 15.1978569030761719
  6.0200943946838379  2.7558856010437012 16.9193611145019531
  8.9482679367065430  0.3964440524578094 15.2220678329467773
 11.2812376022338867  1.9370150566101074 16.8713798522949219
 13.9420003890991211  3.4782209396362305 12.2308187484741211
  8.5063438415527344  1.6821838617324829 12.2359733581542969
 10.8674335479736328  2.5187239646911621 13.5395898818969727
 13.1743526458740234  4.1198663711547852 15.2475833892822266
  6.4299631118774414  2.1465301513671875 13.6697988510131836
  8.8814201354980469  3.7038981914520264 15.3603582382202148
  4.1204133033752441  0.5850126147270203 18.5720634460449219
  8.3712491989135742  4.3279585838317871 18.5824832916259766
  3.6169095039367676  1.1697500944137573 21.8087825775146484
  5.7105069160461426  2.7871379852294922 23.2232856750488281
  8.8586368560791016  0.4623292982578278 21.8328456878662109
 11.6878604888916016  2.1794197559356689 23.0224895477294922
 13.6313600540161133  3.5094904899597168 18.5350284576416016
  8.4448356628417969  0.9813067317008972 18.4587039947509766
 10.7707128524780273  2.5611569881439209 20.0938892364501953
 13.2226495742797852  4.1189260482788086 21.7844982147216797
  6.4774360656738281  2.1452107429504395 20.2063064575195312
  8.7846584320068359  3.7465877532958984 21.9147052764892578
  4.0589437484741211 -0.1159462109208107 24.7946395874023438
 10.3258085250854492  1.1218662261962891 12.2490530014038086
 12.7741336822509766  2.9043657779693604 13.7284088134765625
 15.1165466308593750  4.4800038337707520 15.3610601425170898
  6.9228653907775879  3.3726770877838135 15.1797180175781250
  2.1862106323242188  0.2234608680009842 18.4312629699707031
  4.5656642913818359  1.7875357866287231 13.5328798294067383
  7.6086263656616211  0.5050227642059326 13.7040462493896484
 10.0138406753540039  2.0242276191711426 15.3679819107055664
 12.3511638641357422  3.5845170021057129 17.0285854339599609
  9.6778488159179688  4.2054843902587891 13.5453815460205078
  4.9415473937988281  1.1113650798797607 16.7801933288574219
 10.3792552947998047  1.3429727554321289 18.5998039245605469
 12.7293796539306641  2.8924820423126221 20.2748794555664062
 15.0869207382202148  4.4776434898376465 21.9214305877685547
  6.8780627250671387  3.3609368801116943 21.7257061004638672
  2.2397208213806152  0.4445424377918243 24.7814216613769531
  4.5353374481201172  1.7854009866714478 20.0934944152832031
  7.6232705116271973  0.4548887014389038 20.2508735656738281
  9.9746179580688477  2.0598628520965576 21.9092426300048828
  7.3010334968566895  2.6808042526245117 18.4259300231933594
  9.6386384963989258  4.2410335540771484 20.0865039825439453
  4.9567723274230957  1.0611782073974609 23.3264770507812500
