Co O 
 1.0000000000000000
     9.7551317214965820    0.0000000000000000    0.0000000000000000
     0.0000000000000000    9.1972265243530273    0.0000000000000000
     0.0000000000000000    0.0000000000000000   39.0205307006835938
 Co  O  
  48  50
Cartesian
  1.6257307529449463  1.1496609449386597 18.6987934112548828
  1.6256709098815918  5.7471642494201660 18.6990261077880859
  4.8774819374084473  1.1495864391326904 18.6979923248291016
  4.8776473999023438  5.7478327751159668 18.6979160308837891
  8.1294879913330078  1.1492344141006470 18.6979808807373047
  8.1293630599975586  5.7478742599487305 18.6981163024902344
  1.6271562576293945  1.1203927993774414 15.4056615829467773
  1.6274304389953613  5.7181963920593262 15.4057588577270508
  4.8792119026184082  1.1176906824111938 15.4028654098510742
  4.8785667419433594  5.7191486358642578 15.4032373428344727
  8.1263561248779297  1.1194827556610107 15.4029026031494141
  8.1278858184814453  5.7198853492736816 15.4050512313842773
  0.0028831292875111  3.5552299022674561 13.8909645080566406
  0.0012061245506629  8.1360607147216797 13.8874988555908203
  3.2535490989685059  3.5583779811859131 13.8967351913452148
  3.2528305053710938  8.1538829803466797 13.8937940597534180
  6.5041022300720215  3.5571703910827637 13.8923978805541992
  6.5062808990478516  8.1640777587890625 13.8959627151489258
  3.2516336441040039  3.4507441520690918 17.0658817291259766
  3.2528007030487061  8.0509061813354492 17.0669593811035156
  6.5035133361816406  3.4507811069488525 17.0659351348876953
  6.5029439926147461  8.0494403839111328 17.0637874603271484
  0.0002394884941168  3.4513068199157715 17.0671997070312500
 -0.0005973067600280  8.0479135513305664 17.0686912536621094
  1.6235206127166748  1.2691973447799683 25.1385440826416016
  1.6646620035171509  5.7531776428222656 25.2973003387451172
  4.8732452392578125  1.2575258016586304 25.1335124969482422
  4.8394179344177246  5.8234009742736816 25.1701698303222656
  8.1342983245849609  1.2603279352188110 25.1346778869628906
  8.1405839920043945  5.8470249176025391 25.1382541656494141
  1.6250680685043335  1.1526805162429810 21.9586448669433594
  1.6248799562454224  5.7450652122497559 21.9598217010498047
  4.8759713172912598  1.1526658535003662 21.9561710357666016
  4.8757715225219727  5.7488298416137695 21.9562969207763672
  8.1315240859985352  1.1527504920959473 21.9566555023193359
  8.1317014694213867  5.7495522499084473 21.9567623138427734
  3.2504129409790039  3.4488701820373535 20.3254585266113281
  3.2513115406036377  8.0475225448608398 20.3247509002685547
  6.5035600662231445  3.4488329887390137 20.3243198394775391
  6.5036311149597168  8.0473365783691406 20.3237171173095703
  0.0012939206790179  3.4486513137817383 20.3263912200927734
  0.0001649592886679  8.0469961166381836 20.3250961303710938
  3.2350091934204102  3.4360685348510742 23.6371345520019531
  3.2511115074157715  8.0218191146850586 23.6218357086181641
  6.5020923614501953  3.4223601818084717 23.6141567230224609
  6.5039763450622559  8.0203952789306641 23.6130352020263672
  0.0105526139959693  3.4228572845458984 23.6327552795410156
  0.0002312941796845  8.0238485336303711 23.6153278350830078
  9.7550945281982422  2.2998390197753906 18.6928710937500000
  9.7550516128540039  6.8992862701416016 18.6930351257324219
  3.2518870830535889  2.3002245426177979 18.6929836273193359
  3.2519183158874512  6.8994355201721191 18.6923980712890625
  6.5033583641052246  2.3001959323883057 18.6935214996337891
  6.5034227371215820  6.8994297981262207 18.6935653686523438
  3.2488305568695068  2.2990391254425049 15.4132804870605469
  3.2453258037567139  6.8993825912475586 15.4060783386230469
  6.4988417625427246  2.3009021282196045 15.4127616882324219
  6.5012555122375488  6.8991527557373047 15.4120616912841797
  9.7503471374511719  2.2996127605438232 15.4118623733520508
  0.0005398489884101  6.9002785682678223 15.4167718887329102
  1.6258075237274170  9.1196451187133789 13.8191165924072266
  1.6297596693038940  4.5149993896484375 13.8113555908203125
  4.8841371536254883  9.1122903823852539 13.8115768432617188
  4.8787641525268555  4.5124144554138184 13.8127870559692383
  8.1253709793090820  9.1201620101928711 13.8151750564575195
  8.1313104629516602  4.5147304534912109 13.8149442672729492
  1.6258890628814697  0.0024005682207644 17.0727672576904297
  1.6249202489852905  4.6006956100463867 17.0732936859130859
  4.8759541511535645  0.0015025510219857 17.0752296447753906
  4.8773350715637207  4.6009750366210938 17.0733242034912109
  8.1298618316650391  0.0014392740558833 17.0736675262451172
  8.1292285919189453  4.6005187034606934 17.0735645294189453
  3.2569706439971924  2.1710851192474365 25.1831703186035156
  3.2356858253479004  6.9070062637329102 25.1349029541015625
  6.5037450790405273  2.2064666748046875 25.1952533721923828
  6.5083689689636230  6.8110237121582031 25.1925811767578125
 -0.0063282516784966  2.2086493968963623 25.1871299743652344
  0.0206091795116663  6.8361315727233887 25.1563892364501953
  9.7534208297729492  2.2979807853698730 21.9425601959228516
  9.7522268295288086  6.9018611907958984 21.9435157775878906
  3.2548120021820068  2.2993764877319336 21.9429454803466797
  3.2539339065551758  6.9012560844421387 21.9449386596679688
  6.5031251907348633  2.3021507263183594 21.9456424713134766
  6.5029983520507812  6.9015035629272461 21.9461688995361328
  1.6261881589889526  0.0008310614502989 20.3245563507080078
  1.6259965896606445  4.5988516807556152 20.3214569091796875
  4.8777718544006348  0.0007894899463281 20.3256874084472656
  4.8780755996704102  4.5996651649475098 20.3253040313720703
  8.1287508010864258  0.0008047573501244 20.3253116607666016
  8.1285676956176758  4.5995655059814453 20.3252658843994141
  1.6315140724182129  0.0019246117444709 23.6030387878417969
  1.6070464849472046  4.6123423576354980 23.5601634979248047
  4.8855037689208984 -0.0001100908048102 23.6070442199707031
  4.8877301216125488  4.6037464141845703 23.6014823913574219
  8.1218194961547852 -0.0011780727654696 23.6062355041503906
  8.1190090179443359  4.6027660369873047 23.6073532104492188
  1.5152537822723389  4.6254329681396484 26.8679122924804688
  2.7661712169647217  4.6041674613952637 26.1181716918945312
