Co O 
 1.0000000000000000
     9.7551317214965820    0.0000000000000000    0.0000000000000000
     0.0000000000000000    9.1972265243530273    0.0000000000000000
     0.0000000000000000    0.0000000000000000   39.0205307006835938
 Co  O  
  48  50
Cartesian
  1.6250262260437012  1.1596952676773071 18.6757297515869141
  1.6213572025299072  5.7457962036132812 18.6920604705810547
  4.8729381561279297  1.1505805253982544 18.6738433837890625
  4.8752980232238770  5.7602586746215820 18.6926345825195312
  8.1266527175903320  1.1576079130172729 18.7012195587158203
  8.1276884078979492  5.7538585662841797 18.6829185485839844
  1.6117281913757324  1.1148273944854736 15.3632774353027344
  1.6150196790695190  5.7057046890258789 15.3645496368408203
  4.8662228584289551  1.0948803424835205 15.3621616363525391
  4.8723220825195312  5.7049961090087891 15.3813171386718750
  8.1237945556640625  1.0919467210769653 15.3880920410156250
  8.1133499145507812  5.6853003501892090 15.3737020492553711
  0.0586585849523544  3.6752662658691406 14.0601587295532227
  0.0484952963888645  8.2414407730102539 14.1016206741333008
  3.2148480415344238  3.6548833847045898 14.0690994262695312
  3.3079116344451904  8.2692718505859375 14.0617866516113281
  6.5542893409729004  3.6377801895141602 14.1017522811889648
  6.4623126983642578  8.2510118484497070 14.0630435943603516
  3.2503449916839600  3.4588441848754883 17.0483131408691406
  3.2414104938507080  8.0512762069702148 17.0438117980957031
  6.4932746887207031  3.4514665603637695 17.0587043762207031
  6.5026335716247559  8.0519094467163086 17.0495204925537109
  9.7501974105834961  3.4533798694610596 17.0477447509765625
  9.7515058517456055  8.0522613525390625 17.0585060119628906
  1.5457551479339600  1.3494185209274292 24.9091148376464844
  1.6748095750808716  5.6748709678649902 25.3601303100585938
  4.8421649932861328  1.3217780590057373 24.8894081115722656
  4.8164377212524414  6.0019145011901855 24.9479846954345703
  8.1632289886474609  1.3465194702148438 24.9325809478759766
  8.2333097457885742  5.9806461334228516 24.9148864746093750
  1.6217852830886841  1.1777589321136475 21.9352874755859375
  1.6284079551696777  5.7265372276306152 22.0036544799804688
  4.8793931007385254  1.1618267297744751 21.9423656463623047
  4.8673205375671387  5.7498211860656738 21.9700164794921875
  8.1309385299682617  1.1563906669616699 21.9765968322753906
  8.1317729949951172  5.7489495277404785 21.9530696868896484
  3.2538137435913086  3.4599990844726562 20.3179912567138672
  3.2426958084106445  8.0490226745605469 20.3181056976318359
  6.5020442008972168  3.4561114311218262 20.3271179199218750
  6.5009088516235352  8.0567007064819336 20.3198928833007812
  9.7526483535766602  3.4570415019989014 20.3258686065673828
  0.0020198975689709  8.0506162643432617 20.3298873901367188
  3.2422547340393066  3.4142920970916748 23.6398849487304688
  3.2523725032806396  8.0143146514892578 23.6094112396240234
  6.4829430580139160  3.4083704948425293 23.6428642272949219
  6.5194540023803711  7.9680824279785156 23.6137256622314453
  9.7548227310180664  3.4398345947265625 23.6443309783935547
  0.0289674736559391  7.9857497215270996 23.6255054473876953
  9.7537574768066406  2.3143982887268066 18.6845588684082031
  0.0002828988363035  6.9078135490417480 18.6897792816162109
  3.2518641948699951  2.3141489028930664 18.6783332824707031
  3.2425656318664551  6.9078083038330078 18.6760921478271484
  6.4968509674072266  2.3083899021148682 18.6904621124267578
  6.5038237571716309  6.9120240211486816 18.6820468902587891
  3.2522289752960205  2.2704379558563232 15.4132833480834961
  3.2304461002349854  6.8792405128479004 15.3932409286499023
  6.4830822944641113  2.2509753704071045 15.4391403198242188
  6.5061349868774414  6.8734555244445801 15.4079952239990234
  9.7315206527709961  2.2876746654510498 15.3929500579833984
  9.7304782867431641  6.8508858680725098 15.4395704269409180
  1.6481881141662598  9.0706462860107422 13.8092126846313477
  1.6410861015319824  4.5367832183837891 13.7286157608032227
  4.8874282836914062  9.1319789886474609 13.7184143066406250
  4.8907370567321777  4.4139080047607422 13.8932342529296875
  8.1400623321533203  9.0097675323486328 13.8883934020996094
  8.1520805358886719  4.4659104347229004 13.7971353530883789
  1.6208525896072388  0.0130490260198712 17.0444126129150391
  1.6218727827072144  4.6019496917724609 17.0500068664550781
  4.8704967498779297  9.1908016204833984 17.0462017059326172
  4.8726873397827148  4.6147766113281250 17.0645122528076172
  8.1271781921386719  0.0092121269553900 17.0752201080322266
  8.1228637695312500  4.5968837738037109 17.0601425170898438
  3.2225482463836670  2.0977485179901123 25.1425666809082031
  3.1877906322479248  6.8478164672851562 25.1388988494873047
  6.4906368255615234  2.1053612232208252 25.1267814636230469
  6.5311074256896973  6.6940340995788574 25.1325149536132812
  9.7346191406250000  2.2329990863800049 25.2530460357666016
  0.1456301659345627  6.7248945236206055 25.1354942321777344
  9.7474422454833984  2.3201718330383301 21.9648609161376953
  0.0107357176020741  6.8906631469726562 21.9478435516357422
  3.2531139850616455  2.3170869350433350 21.9463672637939453
  3.2401664257049561  6.8942322731018066 21.9375629425048828
  6.5064582824707031  2.3119280338287354 21.9534206390380859
  6.5034523010253906  6.8921880722045898 21.9294700622558594
  1.6223050355911255  0.0181178022176027 20.3123779296875000
  1.6239005327224731  4.6092324256896973 20.3379364013671875
  4.8698458671569824  0.0104841031134129 20.3114814758300781
  4.8781790733337402  4.6143765449523926 20.3265762329101562
  8.1308965682983398  0.0141663048416376 20.3398571014404297
  8.1289358139038086  4.6103405952453613 20.3174133300781250
  1.6310533285140991  9.1821441650390625 23.5549087524414062
  1.6297188997268677  4.5884695053100586 23.6604690551757812
  4.9155049324035645  9.1452274322509766 23.5472278594970703
  4.8676567077636719  4.5857629776000977 23.6153392791748047
  8.1413974761962891  9.1439132690429688 23.6046962738037109
  8.1080217361450195  4.5761876106262207 23.5909652709960938
  1.5347675085067749  4.7576656341552734 27.0397243499755859
  2.6890707015991211  4.4124026298522949 26.5080757141113281
