Zn O 
 1.0000000000000000
     9.9938201904296875    0.0000000000000000    0.0000000000000000
     9.9938201904296875    7.4407730102539062    1.0092240571975708
     0.0000000000000000    0.0000000000000000   30.3796920776367188
 Zn  O  
  24  40
Cartesian
  8.8091402053833008  4.4940772056579590 14.3944845199584961
 17.5603446960449219  7.4104828834533691 11.6983242034912109
  8.7875766754150391  2.1976914405822754 12.3182048797607422
  6.1738882064819336  4.4207758903503418 12.3151578903198242
 16.3104839324951172  6.9996995925903320 14.2312936782836914
  6.3825926780700684  2.0593574047088623 15.2256898880004883
 11.4562158584594727  6.5848455429077148 14.6160831451416016
  0.5950406193733215  0.2531834542751312 11.0443754196166992
 11.2195463180541992  4.1402120590209961 12.6579847335815430
 13.7909946441650391  4.1654267311096191 15.3221273422241211
 13.8226795196533203  6.2894892692565918 12.3605594635009766
  3.7930674552917480  1.7204569578170776 13.3402833938598633
  8.8261785507202148  4.8718385696411133 19.5330410003662109
 18.7878646850585938  6.9956831932067871 16.5715084075927734
  8.7899703979492188  1.9999899864196777 17.5438480377197266
  6.4593524932861328  4.5761919021606445 17.2772808074951172
 16.2163639068603516  7.0203976631164551 19.2354640960693359
  5.5927639007568359  3.4673283100128174 19.8402519226074219
 11.1709804534912109  6.7405500411987305 19.5783863067626953
 11.3795738220214844  1.6608847379684448 15.6586141586303711
 11.3133859634399414  4.1614089012145996 17.6622714996337891
 12.5639228820800781  3.7512292861938477 20.1949577331542969
 13.8057174682617188  6.6670098304748535 17.4991378784179688
  3.7910079956054688  1.5227448940277100 18.5661964416503906
  8.2579889297485352  0.0774766802787781 12.8010416030883789
  8.3527488708496094  2.4510400295257568 14.6672668457031250
  6.7076520919799805  4.9169788360595703 14.2475910186767578
  6.6696615219116211  2.5166876316070557 12.0703353881835938
 11.7481298446655273  3.7416074275970459 15.6672067642211914
 11.8328189849853516  6.3320560455322266 12.4728126525878906
  1.8085165023803711  1.2253937721252441 13.5401525497436523
 13.4521083831787109  6.2421402931213379 15.2084150314331055
 13.2560434341430664  3.6980988979339600 13.0652914047241211
 10.9375686645507812  4.5542950630187988 14.7037916183471680
 11.0456066131591797  1.8422346115112305 12.3844289779663086
 14.1326751708984375  4.3687143325805664 12.0411405563354492
 14.2442035675048828  7.0578303337097168 14.2124958038330078
  4.2378349304199219  2.0724987983703613 15.3119287490844727
  9.1993036270141602  6.6123385429382324 14.5521631240844727
  9.0246324539184570  1.0760670900344849 10.4070310592651367
  9.2760887145996094  4.1075782775878906 12.4582338333129883
  5.9102811813354492  4.1279826164245605 15.2405519485473633
 15.9952611923217773  6.4138784408569336 11.9851131439208984
  5.8495397567749023  1.7479497194290161 13.0782966613769531
  8.4551267623901367  4.9190058708190918 16.6851024627685547
  8.2592029571533203  0.0223411433398724 17.8188915252685547
  6.8360600471496582  4.8291344642639160 19.4208908081054688
  6.7510695457458496 -0.0213611200451851 15.2171459197998047
  6.8052248954772949  2.4949316978454590 17.3442173004150391
 11.7045383453369141  6.2441134452819824 17.6459522247314453
  1.6729170083999634  1.2038316726684570 18.8140354156494141
  3.3558819293975830  1.2692724466323853 16.2170600891113281
 13.2548427581787109  3.6426506042480469 18.0832347869873047
 10.9985904693603516  4.7474942207336426 19.9083251953125000
 10.9072551727294922  7.0330696105957031 16.6528606414794922
 10.8465032577514648  1.9724956750869751 17.8058624267578125
 14.1962089538574219  4.5487766265869141 17.3414974212646484
 14.2728300094604492  7.0535740852355957 19.4353771209716797
  4.0280604362487793  2.6444492340087891 20.4774131774902344
  9.1358633041381836  6.7926411628723145 19.8523349761962891
  9.2347755432128906  1.6478064060211182 15.5721826553344727
  9.2472324371337891  4.1033267974853516 17.6809844970703125
 15.9342470169067383  6.6066679954528809 17.1896934509277344
  6.0489025115966797  1.8782573938369751 18.5000038146972656
