Mn O 
 1.0000000000000000
    11.7465744018554688    0.0000000000000000   -0.0000499999987369
     8.8037967681884766    4.7989687919616699    2.9239220619201660
     0.0000000000000000    0.0000000000000000   35.2208442687988281
 Mn  O  
  22  26
Cartesian
  0.0018529512453824 -0.1094982698559761 14.5253629684448242
  5.8751163482666016 -0.1095005199313164 14.5253591537475586
  7.2675447463989258  2.1586649417877197 15.7664299011230469
 13.1408386230468750  2.1586616039276123 15.7664155960083008
 10.3522033691406250  2.1578109264373779 15.7662124633789062
  4.4789099693298340  2.1578211784362793 15.7662611007690430
 11.7418050765991211  3.5007898807525635 18.9604320526123047
 17.6150875091552734  3.5007975101470947 18.9604091644287109
  0.0007016724557616  0.0579088702797890 17.5695457458496094
  5.8739900588989258  0.0579107888042927 17.5695304870605469
  8.8089675903320312  1.3903046846389771 18.5733356475830078
  2.9356796741485596  1.3902838230133057 18.5733833312988281
 -0.0021317168138921 -0.0695452690124512 20.5074005126953125
  5.8711562156677246 -0.0695466622710228 20.5073833465576172
  7.3724040985107422  2.3663606643676758 21.8318805694580078
 13.2456951141357422  2.3663525581359863 21.8318729400634766
 10.2377929687500000  2.3656005859375000 21.8319168090820312
  4.3645071983337402  2.3656015396118164 21.8319435119628906
 11.7369766235351562  4.2803845405578613 23.7998065948486328
 17.6102600097656250  4.2804136276245117 23.7997570037841797
 -0.0040429923683405  0.3067853152751923 23.4096794128417969
  5.8692612648010254  0.3068076968193054 23.4096603393554688
 11.7467737197875977  1.9020708799362183 14.3605594635009766
  5.8734622001647949  1.9020664691925049 14.3605947494506836
  8.8100814819335938  2.7511384487152100 16.9057388305664062
 14.6833629608154297  2.7511358261108398 16.9057445526123047
 11.7463493347167969  2.3087029457092285 17.3294525146484375
  5.8730764389038086  2.3087065219879150 17.3294830322265625
  7.2647194862365723  0.0446340106427670 16.1654148101806641
  1.3914363384246826  0.0446245558559895 16.1654376983642578
 10.3584651947021484  0.0437127538025379 16.1642017364501953
  4.4851689338684082  0.0437139049172401 16.1642513275146484
 10.2027711868286133  4.7448554039001465 22.0023803710937500
 16.0760593414306641  4.7448687553405762 22.0023593902587891
 13.2776327133178711  4.7443876266479492 22.0004158020019531
 19.1509189605712891  4.7443985939025879 22.0003738403320312
  8.8057556152343750  2.3736906051635742 20.4606781005859375
 14.6790447235107422  2.3736925125122070 20.4606647491455078
 11.7418851852416992  2.2408328056335449 20.5940113067626953
  5.8685908317565918  2.2408375740051270 20.5940227508544922
  8.8048648834228516  2.5255362987518311 23.0841636657714844
 14.6781616210937500  2.5255334377288818 23.0841484069824219
 11.7413082122802734  2.3141927719116211 23.2271747589111328
  5.8680272102355957  2.3142120838165283 23.2271842956542969
  7.2020077705383301  0.0362203642725945 21.9478855133056641
  1.3287144899368286  0.0362091809511185 21.9479064941406250
 10.4114627838134766  0.0353112928569317 21.9466819763183594
  4.5381827354431152  0.0353129729628563 21.9467182159423828
