Mn O 
 1.0000000000000000
    11.7465744018554688    0.0000000000000000   -0.0000499999987369
     8.8037967681884766    4.7989687919616699    2.9239220619201660
     0.0000000000000000    0.0000000000000000   35.2208442687988281
 Mn  O  
  22  26
Cartesian
  0.0000000000000000  0.0000000000000000 14.4656934738159180
  5.8732872009277344  0.0000000000000000 14.4656686782836914
  7.3385419845581055  2.3994843959808350 15.9276418685913086
 13.2118291854858398  2.3994843959808350 15.9276170730590820
 10.2751855850219727  2.3994843959808350 15.9276294708251953
  4.4018983840942383  2.3994843959808350 15.9276542663574219
 11.7371644973754883  3.6035075187683105 18.8623828887939453
 17.6104507446289062  3.6035075187683105 18.8623580932617188
  0.0000000000000000  0.0000000000000000 17.4007873535156250
  5.8732872009277344  0.0000000000000000 17.4007625579833984
  8.8132066726684570  1.1954615116119385 18.8630638122558594
  2.9399199485778809  1.1954615116119385 18.8630886077880859
  0.0000000000000000  0.0000000000000000 20.3358459472656250
  5.8732872009277344  0.0000000000000000 20.3358211517333984
  7.3385419845581055  2.3994843959808350 21.7977943420410156
 13.2118291854858398  2.3994843959808350 21.7977695465087891
 10.2751855850219727  2.3994843959808350 21.7977828979492188
  4.4018983840942383  2.3994843959808350 21.7978076934814453
 11.7371644973754883  3.6035075187683105 24.7325000762939453
 17.6104507446289062  3.6035075187683105 24.7324752807617188
  0.0000000000000000  0.0000000000000000 23.2709045410156250
  5.8732872009277344  0.0000000000000000 23.2708797454833984
 11.7443742752075195  2.3232672214508057 14.6317958831787109
  5.8710870742797852  2.3232672214508057 14.6318206787109375
  8.8060083389282227  2.4757018089294434 17.2234992980957031
 14.6792955398559570  2.4757018089294434 17.2234725952148438
 11.7444410324096680  2.3192312717437744 17.2330379486083984
  5.8711538314819336  2.3192312717437744 17.2330627441406250
  7.1780638694763184  0.0785159319639206 15.9391717910766602
  1.3047766685485840  0.0785159319639206 15.9391965866088867
 10.4387636184692383  0.0778776705265045 15.9390859603881836
  4.5654883384704590  0.0778776705265045 15.9391107559204102
 10.1115961074829102  4.7210912704467773 21.7863616943359375
 15.9848947525024414  4.7210912704467773 21.7863368988037109
 13.3723077774047852  4.7204532623291016 21.7862396240234375
 19.2455940246582031  4.7204532623291016 21.7862148284912109
  8.8059301376342773  2.4797377586364746 20.4923744201660156
 14.6792173385620117  2.4797377586364746 20.4923496246337891
 11.7443742752075195  2.3232672214508057 20.5019493103027344
  5.8710870742797852  2.3232672214508057 20.5019741058349609
  8.8060083389282227  2.4757018089294434 23.0936164855957031
 14.6792955398559570  2.4757018089294434 23.0935897827148438
 11.7444410324096680  2.3192312717437744 23.1031551361083984
  5.8711538314819336  2.3192312717437744 23.1031799316406250
  7.1780638694763184  0.0785159319639206 21.8093242645263672
  1.3047766685485840  0.0785159319639206 21.8093490600585938
 10.4387636184692383  0.0778776705265045 21.8092021942138672
  4.5654883384704590  0.0778776705265045 21.8092269897460938
