Fe O 
 1.0000000000000000
     8.2171297073364258    0.0000000000000000   -4.2744579315185547
    -0.6420570015907288    7.8080720901489258    2.8531761169433594
     0.0000000000000000    0.0000000000000000   37.4564247131347656
 Fe  O  
  30  28
Cartesian
  3.3742883205413818  1.2128269672393799 13.4552373886108398
  7.1671366691589355  5.0606169700622559 12.4706134796142578
  6.1377873420715332  7.5170116424560547 14.5649557113647461
  2.2946004867553711  3.4722485542297363 15.1444225311279297
  1.7248069047927856  5.8347544670104980 16.9825820922851562
  6.1110267639160156  2.0557329654693604 13.4106702804565430
  1.4801422357559204  0.5814546942710876 15.8177862167358398
  5.2485222816467285  4.4269919395446777 15.1959400177001953
  4.5908737182617188  6.8766369819641113 16.9945201873779297
  0.8426932096481323  2.9485807418823242 17.7142982482910156
  4.5553703308105469  1.5513836145401001 16.0603389739990234
  0.0646725520491600  5.4138755798339844 19.5614337921142578
  0.0365700423717499  0.0327971801161766 18.5800590515136719
  3.8429777622222900  3.8912327289581299 17.8766899108886719
  3.0361161231994629  6.3194909095764160 19.6846351623535156
  7.5406556129455566  2.4652879238128662 16.1068401336669922
  2.9646070003509521  0.9433119297027588 18.6337432861328125
  6.7342648506164551  4.8929100036621094 17.9155025482177734
  6.0216116905212402  7.2325787544250488 19.7321739196777344
  2.2946619987487793  3.3705105781555176 20.5047969818115234
  1.5160397291183472  5.8353657722473145 22.3513908386230469
  5.9860949516296387  1.9076497554779053 18.7975654602050781
  1.5202077627182007  0.3942099511623383 21.3959426879882812
  5.3283705711364746  4.3571238517761230 20.5969028472900391
  4.4637570381164551  6.7285747528076172 22.3820152282714844
  0.6351905465126038  2.9485623836517334 23.0828723907470703
  4.4375243186950684  1.2670394182205200 21.2275676727294922
  0.0649702548980713  5.3113327026367188 24.9217300415039062
  7.2006249427795410  7.5708928108215332 22.3381633758544922
  3.4093749523162842  3.7240343093872070 23.3217029571533203
  5.1131367683410645  0.5638094544410706 12.4816541671752930
  0.7130954265594482  4.3740229606628418 16.0192909240722656
  4.0328187942504883  2.9101071357727051 14.2618808746337891
 -0.4614218175411224  6.6516046524047852 17.9167194366455078
  3.6122550964355469  5.1467547416687012 16.1979160308837891
  8.0528135299682617  1.2562057971954346 12.6121950149536133
  2.5110001564025879  7.5543541908264160 17.7049312591552734
  6.9794526100158691  3.7280623912811279 14.1827630996704102
  2.7617270946502686  2.1346800327301025 16.9250602722167969
  6.4309573173522949  6.0937137603759766 16.2068748474121094
  6.2416377067565918  0.7371492385864258 15.1602201461791992
  1.8940587043762207  4.5483665466308594 18.7533874511718750
  1.3052433729171753  7.0319209098815918 20.4894561767578125
  5.7789006233215332  3.1422858238220215 16.9265804290771484
  4.7980127334594727  5.6418585777282715 18.8657512664794922
  1.0540100336074829  1.7523527145385742 19.5766735076904297
  4.9767093658447266  0.2388971745967865 17.7789745330810547
  0.4651845991611481  4.2355437278747559 21.3127117156982422
  4.1458997726440430  2.6905138492584229 19.5856208801269531
 -0.4022610485553741  6.6493225097656250 23.1419296264648438
  3.5967519283294678  5.0563464164733887 21.6088809967041016
  8.0647449493408203  1.2289627790451050 18.0878543853759766
  2.5228881835937500  7.5279879570007324 23.1798400878906250
  6.9645385742187500  3.6373934745788574 19.5943393707275391
  2.8189847469329834  2.1330859661102295 22.1494903564453125
  6.5437340736389160  5.8736400604248047 21.5304489135742188
  6.1042599678039551  0.4123465418815613 20.4578704833984375
  1.6460725069046021  4.4097518920898438 24.0467052459716797
