Fe O 
 1.0000000000000000
     8.2171297073364258    0.0000000000000000   -4.2744579315185547
    -0.6420570015907288    7.8080720901489258    2.8531761169433594
     0.0000000000000000    0.0000000000000000   37.4564247131347656
 Fe  O  
  30  28
Cartesian
  3.0923132896423340  0.9659514427185059 13.2850513458251953
  6.8799524307250977  4.8698077201843262 12.5742378234863281
  6.0654153823852539  7.3578672409057617 14.4516716003417969
  2.2781138420104980  3.4530401229858398 15.1639146804809570
  1.5644321441650391  5.8214702606201172 16.9274463653564453
  5.9940838813781738  1.9177496433258057 13.3637895584106445
  1.4677175283432007  0.4903551936149597 15.9423303604125977
  5.2550191879272461  4.3942580223083496 15.2317037582397461
  4.5574016571044922  6.8353667259216309 17.0129413604736328
  0.7698627710342407  2.9314756393432617 17.7237529754638672
  4.5009536743164062  1.4703351259231567 16.0216350555419922
  0.0712231248617172  5.3742551803588867 19.5857753753662109
  0.0046814270317554  0.0075180800631642 18.5506572723388672
  3.7922668457031250  3.9116232395172119 17.8401775360107422
  3.0733587741851807  6.3439970016479492 19.6774978637695312
  7.5029363632202148  2.4400644302368164 16.1139812469482422
  2.9955384731292725  0.9686248898506165 18.6618080139160156
  6.7830228805541992  4.8726453781127930 17.9507827758789062
  6.0739974975585938  7.3140153884887695 19.7709598541259766
  2.2863662242889404  3.4097125530242920 20.4814147949218750
  1.5895923376083374  5.8515467643737793 22.3433074951171875
  6.0193672180175781  1.9477909803390503 18.7794742584228516
  1.5348931550979614  0.4862016141414642 21.2740592956542969
  5.3229198455810547  4.3906054496765137 20.5632247924804688
  4.5835275650024414  6.8671560287475586 22.4281787872314453
  0.7959864735603333  2.9635548591613770 23.1391677856445312
  4.5133728981018066  1.4306241273880005 21.3305912017822266
  0.0842009186744690  5.3355560302734375 24.8942661285400391
 -0.0914555862545967  0.0077824615873396 23.9274978637695312
  3.6962640285491943  3.9114634990692139 23.2169151306152344
  4.7870750427246094  0.3438688814640045 12.4319438934326172
  0.3567487895488739  4.2484598159790039 15.9959764480590820
  4.2148561477661133  2.6243515014648438 14.3005552291870117
 -0.2157657444477081  6.5288081169128418 17.8646640777587891
  3.3487071990966797  5.1683788299560547 16.0520553588867188
  7.7784214019775391  1.2638928890228271 12.4882249832153320
  2.7627532482147217  7.5035357475280762 17.9580326080322266
  7.1927599906921387  3.5990307331085205 14.3938770294189453
  2.5585463047027588  2.2555973529815674 16.8369865417480469
  6.3462781906127930  6.1587138175964355 16.1274929046630859
  6.4434299468994141  0.6551889181137085 15.1945743560791016
  2.0143015384674072  4.5597066879272461 18.7583847045898438
  1.1365954875946045  7.1467156410217285 20.5118160247802734
  5.5661988258361816  3.2426772117614746 16.9481735229492188
  5.0102348327636719  5.5416455268859863 18.8432388305664062
  1.2229214906692505  1.6376705169677734 19.5537395477294922
  4.7748308181762695  0.3211112618446350 17.7452316284179688
  0.3450317978858948  4.2247877120971680 21.3088150024414062
  4.2298688888549805  2.6219627857208252 19.6715946197509766
 -0.2003054916858673  6.5248541831970215 23.2358188629150391
  3.3843605518341064  5.1844305992126465 21.3978824615478516
  7.8145694732666016  1.2798273563385010 17.8338832855224609
  2.7956047058105469  7.5198540687561035 23.3058223724365234
  7.2253637313842773  3.6152782440185547 19.7410373687744141
  2.5700106620788574  2.2573728561401367 22.2018470764160156
  6.3570699691772461  6.1621112823486328 21.4915218353271484
  6.4335374832153320  0.6310861706733704 20.5075988769531250
  2.0043423175811768  4.5346555709838867 24.0713939666748047
