Ni O 
 1.0000000000000000
     8.1986503601074219    0.0000000000000000    1.0289880037307739
     4.0591487884521484    9.4208240509033203    0.8346049785614014
     0.0000000000000000    0.0000000000000000   33.1766052246093750
 Ni  O  
  36  42
Cartesian
  5.5997505187988281  5.9021487236022949 21.6798419952392578
  1.3337678909301758  3.0340127944946289 21.9335689544677734
  9.8203411102294922  8.7874517440795898 21.3898334503173828
  7.5604138374328613  7.6822237968444824 22.8141384124755859
  3.6912777423858643  4.1104445457458496 20.3893451690673828
  7.6447753906250000  1.2481381893157959 21.7436180114746094
  3.4461843967437744  7.6728072166442871 22.2836399078369141
  7.7760362625122070  4.0436234474182129 20.9842891693115234
  3.6339070796966553  1.1510825157165527 21.1684780120849609
  5.9501771926879883  5.1136789321899414 18.9198322296142578
  1.7484248876571655  2.2337806224822998 19.1864604949951172
 10.1538772583007812  7.9986801147460938 18.6153736114501953
  7.8662972450256348  6.9115219116210938 20.1159381866455078
  4.0363664627075195  3.2777607440948486 17.6571350097656250
  8.0167312622070312  0.3950050771236420 18.9803161621093750
  3.7997267246246338  6.9228706359863281 19.6152076721191406
  8.1220102310180664  3.2742052078247070 18.1766262054443359
  3.9401566982269287  0.3915098607540131 18.4529247283935547
  6.3034214973449707  4.3089179992675781 16.1209506988525391
  2.1019384860992432  1.4207080602645874 16.4202709197998047
 10.4964141845703125  7.1860785484313965 15.8497133255004883
  8.2215890884399414  6.1459832191467285 17.3756675720214844
  4.3852415084838867  2.4948785305023193 14.9136705398559570
  4.2434725761413574  9.0305194854736328 16.0661830902099609
  4.1360764503479004  6.1418590545654297 16.8688087463378906
  8.4593439102172852  2.5015456676483154 15.4288682937622070
  8.3179607391357422  9.0264682769775391 16.5682144165039062
  6.6449751853942871  3.5290820598602295 13.3736991882324219
  2.4590876102447510  0.6246449351310730 13.6559238433837891
 10.7704305648803711  6.3855872154235840 13.0869102478027344
  8.5804538726806641  5.3716230392456055 14.5618057250976562
  4.7133526802062988  1.7537893056869507 12.2606534957885742
  4.6133866310119629  8.2736492156982422 13.3688955307006836
  4.4728388786315918  5.3110370635986328 14.1348781585693359
  8.8006887435913086  1.7444344758987427 12.7638216018676758
  8.6380281448364258  8.1720638275146484 13.8008356094360352
  1.6909002065658569  3.8379507064819336 20.1924057006835938
  5.5803689956665039  0.8757078647613525 21.5655326843261719
  5.7301244735717773  4.2287058830261230 20.5689926147460938
  1.6093463897705078  1.3450883626937866 20.9144592285156250
  7.5083956718444824  5.9956583976745605 21.9457263946533203
 11.6783370971679688  8.7628660202026367 21.6579265594482422
  7.7381658554077148  2.9773085117340088 22.7374076843261719
  7.9121308326721191  8.7521696090698242 21.2152862548828125
  3.7086229324340820  5.9207668304443359 21.4616260528564453
  5.8347673416137695  6.7287540435791016 19.8577022552490234
  1.9698427915573120  3.0211436748504639 17.4911918640136719
  5.9724450111389160  0.1618824452161789 18.7196521759033203
  9.9422311782836914  7.1756033897399902 20.3057270050048828
  6.0863170623779297  3.5169682502746582 17.8512306213378906
  1.8878301382064819  0.6446610689163208 18.1518688201904297
  7.8188543319702148  5.1001601219177246 19.1281356811523438
  3.6135611534118652  2.2200987339019775 19.4728698730468750
  3.8181862831115723  7.9849219322204590 17.7962703704833984
  8.1036014556884766  2.2153866291046143 19.9893417358398438
  8.2991657257080078  7.9857974052429199 18.3667411804199219
  4.0906953811645508  5.0919704437255859 18.6647529602050781
  6.1697001457214355  5.9024806022644043 17.1847152709960938
  2.3134913444519043  2.2477619647979736 14.7339553833007812
 10.3746423721313477  8.7744636535644531 16.8868713378906250
 10.2905559539794922  6.3995485305786133 17.5467662811279297
  6.4239010810852051  2.6904208660125732 15.1712141036987305
  6.2731986045837402  9.2573757171630859 16.3198451995849609
  8.1639423370361328  4.3200397491455078 16.3738517761230469
  3.9587020874023438  1.4357837438583374 16.6781902313232422
  4.1738796234130859  7.1987929344177246 15.0061788558959961
  8.4403114318847656  1.4352360963821411 17.2315349578857422
  8.6542930603027344  7.2013750076293945 15.6121625900268555
  4.4381384849548340  4.3280243873596191 15.9031829833984375
  6.4982390403747559  5.1888365745544434 14.4598789215087891
 10.7884416580200195  8.0752477645874023 14.1382780075073242
  2.4905083179473877  5.5829901695251465 13.8328599929809570
  6.5998253822326660  8.5429143905639648 13.4584941864013672
  8.5380649566650391  3.4644076824188232 13.5882282257080078
  4.3338127136230469  0.6553826332092285 13.8530778884887695
  0.5692770481109619  0.6504268050193787 13.3747901916503906
  8.9779644012451172  6.4397883415222168 12.8632736206054688
  4.7662954330444336  3.5034513473510742 13.1018171310424805
