Fe O 
 1.0000000000000000
     8.6744670867919922    0.0000000000000000    0.0360689982771873
     8.7077960968017578    6.2038030624389648   -0.0183329991996288
     0.0000000000000000    0.0000000000000000   34.7441673278808594
 Fe  O  
  32  30
Cartesian
  2.1652750968933105  1.5474636554718018 11.8592214584350586
  6.5778651237487793  4.6535491943359375 11.8611583709716797
  0.0028909076936543 -0.0000705372367520 13.3818054199218750
  4.3562850952148438  3.0966534614562988 13.3936796188354492
 10.8204956054687500  4.6552419662475586 11.8753881454467773
  6.5256361961364746  1.5484864711761475 11.8746051788330078
  4.3295950889587402 -0.0039440677501261 13.4013919830322266
  8.6896686553955078  3.1006035804748535 13.3854141235351562
  2.1791338920593262  1.5487540960311890 14.9962596893310547
  6.5380086898803711  4.6563992500305176 14.9869804382324219
 -0.0048471940681338  0.0012938651489094 16.5817108154296875
  4.3476734161376953  3.0989494323730469 16.5748996734619141
 10.8628816604614258  4.6538968086242676 15.0063085556030273
  6.5164065361022949  1.5473837852478027 15.0130825042724609
  4.3376293182373047  0.0046694162301719 16.6006870269775391
  8.6936759948730469  3.1029763221740723 16.5917606353759766
  2.1811344623565674  1.5476745367050171 18.1606388092041016
  6.5346832275390625  4.6565809249877930 18.1482772827148438
 -0.0013057989999652  0.0015280586667359 19.7438488006591797
  4.3448319435119629  3.1008968353271484 19.7360248565673828
 10.8658475875854492  4.6527962684631348 18.1654567718505859
  6.5147643089294434  1.5446008443832397 18.1731472015380859
  4.3345160484313965  0.0010332433739677 19.7646446228027344
  8.6964273452758789  3.1023173332214355 19.7549457550048828
  2.1733171939849854  1.5501282215118408 21.3566455841064453
  6.5274467468261719  4.6586194038391113 21.3295783996582031
  0.0145844705402851  0.0033751169685274 22.8789348602294922
  4.3081851005554199  3.1033208370208740 22.8574600219726562
 10.8702449798583984  4.6553063392639160 21.3716640472412109
  6.5218873023986816  1.5538870096206665 21.3741149902343750
  4.3242440223693848  0.0008658027509227 22.8986892700195312
  8.7406845092773438  3.1006355285644531 22.8783473968505859
  4.2776885032653809  1.4674628973007202 11.8751258850097656
  8.6233596801757812  4.5991606712341309 11.8648309707641602
 10.8258628845214844  6.1410350799560547 13.3894586563110352
  6.4296197891235352  3.0506172180175781 13.3962011337280273
  8.7563486099243164  1.5990167856216431 11.9028205871582031
  6.5528831481933594  0.0646329596638680 13.4501781463623047
 10.9496698379516602  3.1722500324249268 13.4389524459838867
  4.2642650604248047  1.4944064617156982 15.0062122344970703
  8.6134243011474609  4.5918288230895996 15.0022335052490234
 10.8012580871582031  6.1297578811645508 16.5636024475097656
  6.4442172050476074  3.0368220806121826 16.5636482238769531
 13.1189155578613281  4.7297549247741699 15.0182952880859375
  8.7676095962524414  1.6024855375289917 15.0357255935668945
  6.5790548324584961  0.0649381801486015 16.6283283233642578
 10.9380407333374023  3.1578047275543213 16.6058292388916016
  4.2653336524963379  1.4848047494888306 18.1499481201171875
  8.6158952713012695  4.5996408462524414 18.1476593017578125
 10.7935409545898438  6.1482849121093750 19.7263202667236328
  6.4392185211181641  3.0278427600860596 19.7414360046386719
 13.1180896759033203  4.7189054489135742 18.1927413940429688
  8.7670211791992188  1.6259769201278687 18.1914176940917969
  6.5877294540405273  0.0571867786347866 19.7694435119628906
 10.9445953369140625  3.1638364791870117 19.7506103515625000
  4.2996449470520020  1.4860489368438721 21.3255996704101562
  8.6164379119873047  4.5845513343811035 21.3211517333984375
 10.8033037185668945  6.1562910079956055 22.8571434020996094
 13.1221313476562500  4.7030258178710938 21.3587398529052734
  8.7316570281982422  1.6135802268981934 21.3666305541992188
  6.5761332511901855  0.0785418823361397 22.8986110687255859
 10.9335412979125977  3.1553645133972168 22.8927192687988281
