Fe O 
 1.0000000000000000
     8.6744670867919922    0.0000000000000000    0.0360689982771873
     8.7077960968017578    6.2038030624389648   -0.0183329991996288
     0.0000000000000000    0.0000000000000000   34.7441673278808594
 Fe  O  
  32  30
Cartesian
  2.2236208915710449  1.5238512754440308 11.9068965911865234
  6.7168211936950684  4.6953535079956055 12.0508069992065430
  0.0153609784319997  0.0173846073448658 13.4164209365844727
  4.3667688369750977  3.1173238754272461 13.3108310699462891
 10.6492996215820312  4.6650180816650391 11.9708204269409180
  6.4850463867187500  1.5155837535858154 11.8898935317993164
  4.3415756225585938 -0.1177687793970108 13.3133401870727539
  8.6944875717163086  3.0804257392883301 13.3809652328491211
  2.1859066486358643  1.5400623083114624 14.9904699325561523
  6.5283694267272949  4.6387324333190918 15.0253639221191406
 -0.0151167726144195  0.0157193206250668 16.5870246887207031
  4.3405818939208984  3.0989334583282471 16.5508193969726562
 10.8921422958374023  4.6621541976928711 15.0147428512573242
  6.4870862960815430  1.5254074335098267 15.0197134017944336
  4.3392887115478516  0.0120835816487670 16.5707569122314453
  8.6938295364379883  3.1051104068756104 16.5815143585205078
  2.1862330436706543  1.5366545915603638 18.1558837890625000
  6.5393395423889160  4.6671695709228516 18.1784915924072266
 -0.0153387049213052  0.0015838929684833 19.7579250335693359
  4.3520650863647461  3.1188762187957764 19.7026062011718750
 10.8620853424072266  4.6513614654541016 18.1784095764160156
  6.5117425918579102  1.5490770339965820 18.2094955444335938
  4.3499279022216797  0.0208700280636549 19.7597007751464844
  8.6749000549316406  3.0942163467407227 19.7494144439697266
  2.1647007465362549  1.5430979728698730 21.3187446594238281
  6.5200471878051758  4.6204671859741211 21.4434871673583984
  0.0016479461919516  0.0125404298305511 22.8219642639160156
  4.1775341033935547  3.1037604808807373 22.6435203552246094
 10.8675994873046875  4.6750049591064453 21.3700160980224609
  6.5128135681152344  1.6272206306457520 21.4669456481933594
  4.3250927925109863  0.0247418824583292 22.8689556121826172
  8.9067335128784180  3.1126644611358643 22.7614860534667969
  4.3466253280639648  1.4149054288864136 11.9341716766357422
  8.6789312362670898  4.6344938278198242 11.8655214309692383
 10.8873233795166016  6.1778082847595215 13.3864421844482422
  6.4430274963378906  3.0658056735992432 13.3640251159667969
  8.7159881591796875  1.5352708101272583 12.0376958847045898
  6.5164918899536133  0.0718111917376518 13.4860010147094727
 10.9543848037719727  3.1371443271636963 13.4272851943969727
  4.2681584358215332  1.4865142107009888 15.0524539947509766
  8.6325731277465820  4.6320781707763672 14.8906812667846680
 10.7891283035278320  6.1481013298034668 16.5294017791748047
  6.4470977783203125  2.9969551563262939 16.5987243652343750
 13.1141195297241211  4.6845068931579590 14.9413051605224609
  8.7543630599975586  1.6311298608779907 15.0946798324584961
  6.5795898437500000  0.0019558728672564 16.6102104187011719
 10.9262428283691406  3.1882898807525635 16.6439037322998047
  4.2777714729309082  1.5494929552078247 18.1729640960693359
  8.6224203109741211  4.5716328620910645 18.1090679168701172
 10.8007402420043945  6.1293954849243164 19.6560840606689453
  6.4475402832031250  3.1280744075775146 19.8930740356445312
 13.1135663986206055  4.7514901161193848 18.1627178192138672
  8.7554969787597656  1.6161618232727051 18.2410335540771484
  6.5751848220825195  0.0855495110154152 19.7190475463867188
 10.9240188598632812  3.1088008880615234 19.8473834991455078
  4.3432044982910156  1.4814698696136475 21.3037452697753906
  8.6812896728515625  4.6253910064697266 21.3035488128662109
  2.1483690738677979  0.0271929427981377 22.7532253265380859
 13.0458898544311523  4.7084126472473145 21.3605384826660156
  8.6711359024047852  1.5617963075637817 21.3850421905517578
  6.5137591361999512  0.0254973825067282 22.7993373870849609
 10.8818387985229492  3.1161155700683594 22.8899803161621094
