Zn O 
 1.0000000000000000
     9.9938201904296875    0.0000000000000000    0.0000000000000000
     9.9938201904296875    7.4407730102539062    1.0092240571975708
     0.0000000000000000    0.0000000000000000   30.3796920776367188
 Zn  O  
  24  38
Cartesian
  8.7646389007568359  4.5557560920715332 14.6081504821777344
  8.7512855529785156  6.1325383186340332 11.8033304214477539
  8.7431507110595703  2.2280070781707764 12.6640491485595703
  6.0747051239013672  4.3883757591247559 12.3511734008789062
 16.3231754302978516  7.0497689247131348 13.9206962585449219
  6.2857441902160645  2.0216600894927979 15.1760749816894531
 11.3901500701904297  6.6000213623046875 14.6268920898437500
  0.6182754635810852  0.2202068567276001 10.9339685440063477
 11.2375516891479492  4.3121538162231445 12.7142972946166992
 13.7087640762329102  4.1398711204528809 15.2576475143432617
 13.8835458755493164  6.2291307449340820 12.3214721679687500
  3.6725676059722900  1.6392216682434082 13.3038816452026367
  8.8865585327148438  4.9321141242980957 19.5720939636230469
 18.7052974700927734  7.0211267471313477 16.6357345581054688
  8.6694641113281250  2.0811998844146729 17.5803546905517578
  6.3931422233581543  4.5610547065734863 17.2667884826660156
 16.2345275878906250  6.8490357398986816 19.1792602539062500
  5.6153750419616699  3.5000066757202148 19.9506492614746094
 11.0716161727905273  6.7729773521423340 19.5422954559326172
 11.2823457717895508  1.6986794471740723 15.7082223892211914
 11.3264455795288086  4.1112794876098633 17.9727458953857422
 13.7482814788818359  5.0286312103271484 20.0902843475341797
 13.7613544464111328  6.6053318977355957 17.2853927612304688
  3.7465496063232422  1.4924813508987427 18.2200870513916016
  8.3631095886230469 -0.0099009899422526 12.6040172576904297
  8.3256492614746094  2.4709205627441406 14.6847343444824219
  6.7064313888549805  4.8861851692199707 14.2863178253173828
  6.7579016685485840  2.5558433532714844 12.1499090194702148
 11.7041435241699219  3.7257175445556641 15.7521514892578125
 11.9183197021484375  6.2840418815612793 12.5613641738891602
  1.5946755409240723  1.2607541084289551 13.4866752624511719
 13.3986215591430664  6.2522931098937988 15.2080669403076172
 13.1626577377319336  3.5907735824584961 13.1102972030639648
 10.8778610229492188  4.5212750434875488 14.7810335159301758
 10.8096513748168945  1.8378050327301025 12.2993860244750977
 14.0458087921142578  4.2227220535278320 12.0670595169067383
 14.1911163330078125  7.1026201248168945 14.2409915924072266
  4.1748242378234863  2.0524926185607910 15.2605133056640625
  9.1823949813842773  6.6745600700378418 14.6192293167114258
  9.2181463241577148  4.3035154342651367 12.5194435119628906
  5.8767061233520508  4.0935721397399902 15.2490854263305664
 15.8685054779052734  6.3176908493041992 12.0584735870361328
  5.8708038330078125  1.7241947650909424 13.0481710433959961
  8.4015169143676758  4.9088034629821777 16.6854228973388672
  8.1657266616821289  0.1297496706247330 17.7740631103515625
  6.9213938713073730  4.8770508766174316 19.3322601318359375
  6.7071652412414551 -0.0052880831062794 15.1321601867675781
  6.5914373397827148  2.4596533775329590 17.3977146148681641
 11.7032518386840820  6.2749729156494141 17.6072235107421875
  1.7611126899719238  1.1646100282669067 18.7343330383300781
  3.3287112712860107  1.2495479583740234 16.1994781494140625
 13.3602352142333984  3.7303011417388916 18.2803134918212891
 10.8714303970336914  4.8435726165771484 19.8348579406738281
 10.8734865188598633  7.0675306320190430 16.6444396972656250
 10.8677787780761719  1.9961930513381958 17.8361110687255859
 14.1793651580810547  4.4865746498107910 17.2742519378662109
 14.2151832580566406  6.8576407432556152 19.3740119934082031
  9.0489721298217773  6.9385290145874023 19.8265953063964844
  9.1717061996459961  1.6676616668701172 15.6237430572509766
  9.1941394805908203  4.0584969520568848 17.6524219512939453
 15.8746376037597656  6.6399374008178711 17.1125793457031250
  5.8127779960632324  1.8826496601104736 18.5851287841796875
