Cu O 
 1.0000000000000000
     8.8076295852661133    0.0000000000000000    3.3388979434967041
     5.5603899955749512   10.3115978240966797    5.8186440467834473
     0.0000000000000000    0.0000000000000000   35.2668304443359375
 Cu  O  
  48  49
Cartesian
  9.8287124633789062  2.3301877975463867 18.0353221893310547
  4.3212785720825195  7.5218834877014160 17.5571689605712891
  7.3267040252685547  2.5920093059539795 20.7255916595458984
 10.0565929412841797  7.6092677116394043 23.8519973754882812
  4.3592581748962402  2.4676752090454102 17.6805458068847656
  7.1776576042175293  7.5433602333068848 20.8530979156494141
 11.4697875976562500 10.2803316116333008 25.1409168243408203
  8.6966190338134766  5.0582289695739746 22.3500671386718750
  8.5867395401000977 10.0911178588867188 22.2099437713623047
  5.7805595397949219  5.1555299758911133 19.2177295684814453
  8.6423015594482422  0.3923465013504028 16.6846790313720703
  2.7840125560760498  5.0799694061279297 16.1339988708496094
  7.3065528869628906  2.4232537746429443 17.7349052429199219
 10.1508245468139648  7.6814227104187012 20.8686065673828125
  3.5968651771545410  1.9855467081069946 14.9707546234130859
  7.0045461654663086  8.3362236022949219 18.6220035552978516
  1.4334931373596191  2.5453345775604248 17.5008087158203125
  4.2448868751525879  7.7502946853637695 20.4812908172607422
 11.5804252624511719 10.1412868499755859 22.1539802551269531
  8.7058486938476562  5.2556509971618652 19.3440933227539062
  8.7380065917968750  9.9439344406127930 19.4041271209716797
  5.6291599273681641  4.7154836654663086 16.3530006408691406
  5.6193900108337402 10.2301864624023438 21.9284000396728516
  2.8347249031066895  5.0610566139221191 19.1008605957031250
  1.4395592212677002  2.5469017028808594 20.5216560363769531
  4.1998691558837891  7.7075324058532715 23.4850559234619141
  7.4574332237243652  2.7351119518280029 26.6257400512695312
 10.2683553695678711  8.0107631683349609 29.6352939605712891
  4.2948565483093262  2.5439536571502686 23.6449909210205078
  7.1037392616271973  7.7648134231567383 26.7246303558349609
  5.7887821197509766  0.0537054836750031 24.9746265411376953
  8.6290473937988281  5.2564115524291992 28.0464744567871094
  2.8531229496002197  0.0555141381919384 22.2059650421142578
  5.6137361526489258  5.1648273468017578 25.1478557586669922
  0.0395068973302841  0.0046452716924250 19.0835266113281250
  2.8157279491424561  5.1571168899536133 22.0243892669677734
  7.2340073585510254  2.5702028274536133 23.7096252441406250
  9.9876670837402344  7.7245502471923828 26.7661457061767578
  4.3457593917846680  2.5572757720947266 20.6603431701660156
  7.0809817314147949  7.6595430374145508 23.7607479095458984
  9.9758815765380859  2.6877033710479736 26.8215389251708984
 12.7535896301269531  7.8607916831970215 29.7854347229003906
  5.8599953651428223  0.0213104635477066 22.2894859313964844
  8.6020479202270508  5.1489367485046387 25.2467041015625000
  8.5180454254150391 10.2597427368164062 25.1202926635742188
  5.7188777923583984  5.0910010337829590 22.2335872650146484
  8.7389602661132812  0.0912470221519470 25.4110260009765625
 11.5223922729492188  5.1730680465698242 28.2867622375488281
  1.5884332656860352  1.1147036552429199 16.1955242156982422
  4.2710990905761719  6.3478198051452637 19.2016429901123047
 10.2212333679199219  6.3998770713806152 19.4813308715820312
  4.4336423873901367  1.2439067363739014 19.2397842407226562
  7.2149062156677246  6.3019709587097168 22.4074268341064453
 10.0764646530151367  3.8769407272338867 19.2762050628662109
 13.0774326324462891  9.0092639923095703 22.1808948516845703
  7.0262513160705566  3.6049172878265381 16.4147109985351562
 10.3150091171264648  9.2758989334106445 19.8873157501220703
  4.3285255432128906  3.8005247116088867 19.1385955810546875
  7.0445585250854492  8.8885536193847656 22.2280235290527344
  7.3979992866516113  1.2890877723693848 19.2684230804443359
 10.1702842712402344  6.3333086967468262 22.3648376464843750
  4.5504255294799805  1.0241581201553345 16.4100170135498047
  7.1965184211730957  6.5525031089782715 19.2055454254150391
  4.3753132820129395  6.1394958496093750 16.3211135864257812
 10.1766805648803711  3.7843816280364990 22.3345432281494141
 12.9328994750976562  8.9986619949340820 25.2763252258300781
  7.2703671455383301  3.9654397964477539 19.3582344055175781
  9.9939451217651367  8.7962341308593750 22.4058399200439453
  3.9646739959716797  3.5847132205963135 16.0481109619140625
  7.1180725097656250 10.1950120925903320 18.5629863739013672
  1.4355331659317017  1.3736207485198975 22.0844669342041016
  4.1710090637207031  6.4792308807373047 25.0838584899902344
  7.3754048347473145  1.2907962799072266 22.2259368896484375
 10.1117372512817383  6.4059796333312988 25.3482589721679688
  4.3594865798950195  1.1204737424850464 24.8126087188720703
  7.4239358901977539  6.6254577636718750 28.1102046966552734
 10.1747732162475586  3.9095568656921387 25.2186088562011719
 12.9724197387695312  9.0622072219848633 28.1713733673095703
  7.2036781311035156  3.8052065372467041 22.2330169677734375
  9.9864749908447266  8.9713096618652344 25.2525596618652344
  6.9425272941589355  9.1856765747070312 27.9577121734619141
  7.3397283554077148  1.4187499284744263 25.2552375793457031
 10.0988779067993164  6.4787640571594238 28.2496719360351562
  4.3636908531188965  1.3109735250473022 22.1516132354736328
  7.0984635353088379  6.4524102210998535 25.3064098358154297
  1.5195753574371338  1.2523266077041626 19.0811252593994141
  4.2853260040283203  6.4343671798706055 22.0360794067382812
 12.8210239410400391  9.2438926696777344 31.0302486419677734
  7.0773334503173828  3.9081737995147705 25.0869884490966797
  9.8674373626708984  9.0961179733276367 28.1245727539062500
  4.2454729080200195  3.8302714824676514 22.1352615356445312
  7.0158686637878418  8.9873609542846680 25.1723384857177734
 10.0496683120727539  4.0107183456420898 28.1354103088378906
  4.1768178939819336  3.9500629901885986 24.9214000701904297
  7.2830576896667480  4.0639586448669434 27.8240013122558594
 11.3517465591430664  7.0686755180358887 30.7052154541015625
  8.6070327758789062  1.6773850917816162 27.5838127136230469
