Cu O 
 1.0000000000000000
     8.8076295852661133    0.0000000000000000    3.3388979434967041
     5.5603899955749512   10.3115978240966797    5.8186440467834473
     0.0000000000000000    0.0000000000000000   35.2668304443359375
 Cu  O  
  48  49
Cartesian
  1.3966283798217773  2.5437421798706055 14.6751384735107422
  4.1809015274047852  7.7037639617919922 17.5456676483154297
  7.2630915641784668  2.5859785079956055 20.8238964080810547
 10.0408811569213867  7.7364559173583984 23.7300701141357422
  4.3300409317016602  2.5783319473266602 17.7275066375732422
  7.1101865768432617  7.7357211112976074 20.6423721313476562
  5.8731436729431152  0.0019492013379931 19.3639755249023438
  8.6514177322387695  5.1559519767761230 22.2777709960937500
  2.9456069469451904 -0.0006385972374119 16.2883510589599609
  5.7172446250915527  5.1599049568176270 19.2041931152343750
  0.0054636071436107 -0.0139990253373981 13.2546749114990234
  2.7862420082092285  5.1928319931030273 16.1446266174316406
  7.2709460258483887  2.6000406742095947 17.8104286193847656
 10.0407104492187500  7.7575998306274414 20.7149772644042969
  4.2946949005126953  2.5590264797210693 14.8360471725463867
  7.0866918563842773  7.7167158126831055 17.7488117218017578
  1.3907279968261719  2.5764660835266113 17.6049823760986328
  4.1700196266174316  7.7296595573425293 20.5293750762939453
  5.9036808013916016  0.0055148489773273 16.4395580291748047
  8.6654396057128906  5.1774210929870605 19.3436336517333984
  2.9652915000915527 -0.0579872727394104 13.3990688323974609
  5.7547883987426758  5.1303348541259766 16.2961521148681641
  0.0037201428785920  0.0032326860819012 16.1571140289306641
  2.7874484062194824  5.1584272384643555 19.0749835968017578
  1.3894503116607666  2.5828509330749512 20.5633583068847656
  4.1683020591735840  7.7312240600585938 23.4668521881103516
  7.2616124153137207  2.5769808292388916 26.7971191406250000
 10.0589609146118164  7.7492022514343262 29.5882778167724609
  4.3264017105102539  2.5564799308776855 23.7116451263427734
  7.1104683876037598  7.7080216407775879 26.6235885620117188
  5.8266878128051758  0.0278668869286776 25.2224292755126953
  8.5752573013305664  5.1320509910583496 28.1354331970214844
  2.9162023067474365 -0.0256757754832506 22.1768779754638672
  5.6909136772155762  5.1296181678771973 25.0986194610595703
  0.0015873111551628 -0.0018104072660208 19.1074867248535156
  2.7730255126953125  5.1516981124877930 22.0133228302001953
  7.2609033584594727  2.5757651329040527 23.7693653106689453
 10.0366277694702148  7.7331218719482422 26.6886997222900391
  4.3251652717590332  2.5775632858276367 20.6894035339355469
  7.1053619384765625  7.7320179939270020 23.5974540710449219
  1.3808965682983398  2.6067583560943604 23.5415802001953125
  4.1568589210510254  7.7023530006408691 26.5019302368164062
  5.8652667999267578 -0.0040561701171100 22.3207588195800781
  8.6552543640136719  5.1514825820922852 25.2207908630371094
  2.9336748123168945  0.0012408976908773 19.2383918762207031
  5.7183003425598145  5.1554980278015137 22.1513881683349609
 -0.0090638464316726 -0.0369965694844723 22.0443954467773438
  2.7765712738037109  5.1101016998291016 24.9512519836425781
  1.4662182331085205  1.2645282745361328 16.1615352630615234
  4.2472701072692871  6.4206542968750000 19.0901069641113281
 10.1203794479370117  6.4064989089965820 19.3626155853271484
  4.4034047126770020  1.2877594232559204 19.2288455963134766
  7.1841459274291992  6.4437971115112305 22.1392498016357422
 10.1199150085449219  3.9017362594604492 19.4691143035888672
 12.8789854049682617  9.0673837661743164 22.3591670989990234
  7.1273694038391113  3.8730194568634033 16.4602451324462891
  9.9206132888793945  9.0586490631103516 19.3703212738037109
  4.2473158836364746  3.8671371936798096 19.2193870544433594
  7.0252203941345215  9.0242414474487305 22.1322078704833984
  7.3390927314758301  1.2911568880081177 19.3450851440429688
 10.1207036972045898  6.4501566886901855 22.2665138244628906
  4.4286279678344727  1.2614029645919800 16.2874298095703125
  7.1937947273254395  6.4168839454650879 19.1916236877441406
  4.2655735015869141  6.4508934020996094 16.1557617187500000
 10.1192808151245117  3.8694005012512207 22.4263114929199219
 12.9003324508666992  9.0249538421630859 25.3293628692626953
  7.1868834495544434  3.8896484375000000 19.3742980957031250
  9.9379110336303711  8.9902811050415039 22.2560691833496094
  4.2184944152832031  3.8782367706298828 16.2624816894531250
  7.0243191719055176  9.0837221145629883 19.1668357849121094
  1.4697312116622925  1.2807188034057617 22.0569190979003906
  4.2486906051635742  6.4491209983825684 24.9511661529541016
  7.3407893180847168  1.2885613441467285 22.2927665710449219
 10.1209402084350586  6.4459342956542969 25.2059612274169922
  4.4631209373474121  1.2476724386215210 25.0513801574707031
  7.2471284866333008  6.4384446144104004 27.9662456512451172
 10.1188755035400391  3.8879125118255615 25.3340110778808594
 12.9022808074951172  9.0178918838500977 28.2701282501220703
  7.1844539642333984  3.8673827648162842 22.2873077392578125
  9.9631986618041992  9.0195751190185547 25.1990432739257812
  7.0295858383178711  9.0532855987548828 27.9660091400146484
  7.3651218414306641  1.3116492033004761 25.2501773834228516
 10.1191854476928711  6.4126133918762207 28.1600875854492188
  4.4020442962646484  1.2942738533020020 22.1692371368408203
  7.1800341606140137  6.4514188766479492 25.0773639678955078
  1.4696121215820312  1.2875777482986450 19.0913753509521484
  4.2486014366149902  6.4447932243347168 21.9962959289550781
 12.8906717300415039  9.0387439727783203 31.1737785339355469
  7.1824049949645996  3.8616201877593994 25.2312316894531250
  9.9589405059814453  9.0486040115356445 28.1407947540283203
  4.2474770545959473  3.8605618476867676 22.1587066650390625
  7.0276002883911133  9.0163316726684570 25.0660572052001953
 10.1228971481323242  3.8764746189117432 28.2643222808837891
  4.2493033409118652  3.9017422199249268 25.0553455352783203
  7.2458262443542480  3.8618137836456299 28.1115036010742188
  4.2412576675415039  6.5111150741577148 27.7962818145751953
  7.3486557006835938  1.3519852161407471 28.1052017211914062
