Cu O 
 1.0000000000000000
     8.8076295852661133    0.0000000000000000    3.3388979434967041
     5.5603899955749512   10.3115978240966797    5.8186440467834473
     0.0000000000000000    0.0000000000000000   35.2668304443359375
 Cu  O  
  48  48
Cartesian
  1.3919097185134888  2.5631978511810303 14.6765918731689453
  4.1776328086853027  7.7191848754882812 17.5853118896484375
  7.2631087303161621  2.5775828361511230 20.8161697387695312
 10.0407724380493164  7.7300958633422852 23.7272796630859375
  4.3326940536499023  2.5778238773345947 17.7442226409912109
  7.1116838455200195  7.7337584495544434 20.6493797302246094
  5.8740410804748535  0.0013031797716394 19.3689880371093750
  8.6562213897705078  5.1562175750732422 22.2807350158691406
  2.9393439292907715 -0.0012717293575406 16.2908439636230469
  5.7150154113769531  5.1589212417602539 19.2007446289062500
 -0.0036739220377058  0.0006989201065153 13.2398796081542969
  2.7880547046661377  5.1759114265441895 16.1439113616943359
  7.2671308517456055  2.5685267448425293 17.8765163421630859
 10.0453767776489258  7.7252821922302246 20.7711219787597656
  4.3051033020019531  2.5632843971252441 14.8164663314819336
  7.0851478576660156  7.7186932563781738 17.7275028228759766
  1.3877892494201660  2.5781829357147217 17.6090068817138672
  4.1689715385437012  7.7344613075256348 20.5225563049316406
  5.8977928161621094  0.0069695059210062 16.4374256134033203
  8.6682500839233398  5.1661829948425293 19.3450202941894531
  2.9118804931640625  0.0012894653482363 13.3782062530517578
  5.6936702728271484  5.1555914878845215 16.2883281707763672
  0.0004624804132618  0.0029988188762218 16.1624851226806641
  2.7790694236755371  5.1584057807922363 19.0749015808105469
  1.3892354965209961  2.5854511260986328 20.5680522918701172
  4.1718101501464844  7.7320055961608887 23.4686126708984375
  7.2616834640502930  2.6115708351135254 26.7383480072021484
 10.0409116744995117  7.7314877510070801 29.6700420379638672
  4.3276090621948242  2.5650820732116699 23.6782321929931641
  7.1088862419128418  7.6939487457275391 26.5481700897216797
  5.8274536132812500 -0.0152169279754162 25.2405109405517578
  8.6125307083129883  5.1556115150451660 28.1557407379150391
  3.1668331623077393  0.0770367085933685 22.1206169128417969
  5.7023167610168457  5.1417913436889648 25.0870456695556641
 -0.0001892654254334  0.0001795249263523 19.1040077209472656
  2.7805058956146240  5.1540608406066895 22.0173416137695312
  7.2577562332153320  2.5806150436401367 23.7720928192138672
 10.0406551361083984  7.7302412986755371 26.6694641113281250
  4.3271188735961914  2.5777659416198730 20.6935329437255859
  7.1060695648193359  7.7317371368408203 23.6017627716064453
  1.3860367536544800  2.5603272914886475 23.5557403564453125
  4.1680064201354980  7.7169685363769531 26.4565563201904297
  5.8652801513671875  0.0005561044672504 22.3129920959472656
  8.6466922760009766  5.1527709960937500 25.2204246520996094
  2.9379289150238037  0.0007185121648945 19.2356967926025391
  5.7167630195617676  5.1554880142211914 22.1481552124023438
 -0.1929353624582291  0.0439641177654266 21.9871768951416016
  2.7743268013000488  5.1428885459899902 24.9512538909912109
  1.4701200723648071  1.2723983526229858 16.1597480773925781
  4.2489271163940430  6.4288558959960938 19.0665760040283203
 10.1276884078979492  6.4517755508422852 19.3421840667724609
  4.4049282073974609  1.2889755964279175 19.2257766723632812
  7.1846256256103516  6.4436240196228027 22.1355514526367188
 10.1010646820068359  3.8631823062896729 19.4784126281738281
 12.8846721649169922  9.0594978332519531 22.3840217590332031
  4.2476906776428223  3.8656108379364014 19.2201938629150391
  7.0251445770263672  9.0232715606689453 22.1307430267333984
  7.3414988517761230  1.2751436233520508 19.3632812500000000
 10.1212558746337891  6.4293494224548340 22.2823638916015625
  4.4188237190246582  1.2733285427093506 16.2846050262451172
  7.1910624504089355  6.4288439750671387 19.1946372985839844
 10.1186904907226562  3.8731548786163330 22.4167900085449219
 12.8999261856079102  9.0225067138671875 25.3331241607666016
  7.1835350990295410  3.8834459781646729 19.3491935729980469
  9.9476699829101562  9.0091228485107422 22.2480678558349609
  4.2569618225097656  3.9097847938537598 16.2683658599853516
  7.0503306388854980  9.0572700500488281 19.1795501708984375
  1.4707216024398804  1.4258099794387817 21.9252662658691406
  4.2638611793518066  6.4589743614196777 24.9449577331542969
  7.3416218757629395  1.2885633707046509 22.2956504821777344
 10.1208839416503906  6.4458556175231934 25.2091503143310547
 10.1204605102539062  3.8630897998809814 25.3658866882324219
 12.8996782302856445  9.0192966461181641 28.2720584869384766
  7.1835832595825195  3.8653976917266846 22.2907447814941406
  9.9633407592773438  9.0231332778930664 25.2025356292724609
  7.0152173042297363  8.6935138702392578 27.8712444305419922
  7.3250451087951660  1.2895510196685791 25.2423076629638672
 10.1205282211303711  6.4158282279968262 28.1520996093750000
  4.4197211265563965  1.3020137548446655 22.1576118469238281
  7.1842055320739746  6.4373111724853516 25.0676403045654297
  1.4672363996505737  1.2880558967590332 19.0936203002929688
  4.2489728927612305  6.4452104568481445 21.9986648559570312
  7.1799840927124023  3.8824675083160400 25.2121219635009766
  9.9744977951049805  9.0070867538452148 28.1410999298095703
  4.2465820312500000  3.8644001483917236 22.1559410095214844
  7.0254755020141602  9.0245542526245117 25.0659790039062500
  7.2047061920166016  6.4513831138610840 27.9818115234375000
  6.9810709953308105 10.1024026870727539 29.0146160125732422
  4.2412033081054688  3.8860087394714355 25.0721492767333984
 10.1289615631103516  6.4812145233154297 31.0401687622070312
 12.8904027938842773  9.0366258621215820 31.1882724761962891
  9.9951934814453125  9.0198802947998047 31.0485897064208984
  4.4353790283203125  1.2835032939910889 25.0758991241455078
  4.2416181564331055  6.4749178886413574 27.8347759246826172
  1.4667482376098633  1.3414824008941650 24.9215106964111328
  7.2279629707336426  3.8495852947235107 28.1318531036376953
