Cu O 
 1.0000000000000000
     8.8076295852661133    0.0000000000000000    3.3388979434967041
     5.5603899955749512   10.3115978240966797    5.8186440467834473
     0.0000000000000000    0.0000000000000000   35.2668304443359375
 Cu  O  
  48  48
Cartesian
  9.9422693252563477  2.1923532485961914 18.0436820983886719
 12.8566751480102539  7.5294170379638672 20.9642467498779297
  7.3159694671630859  2.5792286396026611 20.7372436523437500
 10.0906772613525391  7.6915578842163086 23.6478824615478516
  4.4761667251586914  2.5757052898406982 17.6698932647705078
  7.2679157257080078  7.7078709602355957 20.4886894226074219
 11.4714393615722656 10.2252197265625000 25.1888103485107422
  8.6718988418579102  5.0909471511840820 22.2797966003417969
  8.6925640106201172 10.1750097274780273 22.0912132263183594
  5.8248257637023926  5.0251822471618652 19.1497077941894531
  8.7922058105468750  0.1040942445397377 16.8253612518310547
  2.8309700489044189  5.1924638748168945 16.2047214508056641
  7.4662766456604004  2.0678858757019043 17.8042449951171875
 10.1681327819824219  7.5487222671508789 20.7055168151855469
  3.6089694499969482  2.3536224365234375 15.0633535385131836
  6.5176072120666504  7.5559782981872559 17.8651504516601562
  1.4340965747833252  2.5106031894683838 17.6421070098876953
  4.2123341560363770  7.6958007812500000 20.4806594848632812
  6.1123609542846680  0.0377525128424168 16.4484939575195312
  8.7709350585937500  5.0251584053039551 19.2408733367919922
  2.4459583759307861  0.4184409379959106 13.7486600875854492
  5.2489867210388184  5.6249141693115234 16.6677055358886719
  5.6689858436584473 10.1608304977416992 22.0692253112792969
  2.8261170387268066  5.0061330795288086 19.1830501556396484
  1.3954012393951416  2.5710325241088867 20.6647605895996094
  4.2130322456359863  7.7455563545227051 23.4658756256103516
  7.4385094642639160  2.7212893962860107 26.6213855743408203
 10.1410703659057617  7.8513736724853516 29.5284614562988281
  4.3447360992431641  2.6322050094604492 23.6481838226318359
  7.0082907676696777  7.8119883537292480 26.4702339172363281
  5.8423604965209961  0.1412133127450943 25.0558643341064453
  8.2599744796752930  5.3985390663146973 27.9776535034179688
  2.8961076736450195  0.0190717130899429 22.1831493377685547
  5.6112170219421387  5.2506165504455566 25.0013084411621094
  8.8279018402099609  0.0505010522902012 22.4358844757080078
 11.5617799758911133  5.1464719772338867 25.4164657592773438
  7.2036223411560059  2.6318929195404053 23.7527923583984375
  9.9982128143310547  7.7075128555297852 26.6409015655517578
  4.3471040725708008  2.5089099407196045 20.6906242370605469
  7.1469788551330566  7.6951556205749512 23.5116195678710938
  9.8861818313598633  2.6309618949890137 26.9521198272705078
 12.8848266601562500  7.8900318145751953 29.7840881347656250
  5.8658161163330078  0.0405187010765076 22.2775192260742188
  8.5982093811035156  5.2043037414550781 25.1868801116943359
  8.5357351303100586 10.2993345260620117 25.0392169952392578
  5.7152924537658691  5.1436638832092285 22.0944442749023438
  8.7612524032592773  0.0621696561574936 25.3259296417236328
 11.5001211166381836  5.2629446983337402 28.1166076660156250
  1.6060410737991333  1.0402092933654785 16.4863452911376953
  4.2784347534179688  6.2627501487731934 19.2380504608154297
 10.1767549514770508  6.3183927536010742 19.3335742950439453
  4.4769253730773926  1.2435486316680908 19.2039012908935547
  7.2272815704345703  6.4013156890869141 22.0462779998779297
 10.1153554916381836  3.6314682960510254 19.3523216247558594
 12.9947433471679688  9.0308589935302734 22.2933635711669922
  4.3385682106018066  3.7549855709075928 19.1912403106689453
  7.1780934333801270  8.9082546234130859 22.0152683258056641
  7.4199185371398926  1.1125417947769165 19.5338325500488281
 10.1812772750854492  6.2649660110473633 22.3914089202880859
  4.6302871704101562  1.2159806489944458 16.3044300079345703
  7.3101744651794434  6.3145518302917480 19.1291542053222656
 10.1258783340454102  3.7810959815979004 22.4397621154785156
 12.9597597122192383  8.9404716491699219 25.2759189605712891
  7.3081536293029785  3.7365331649780273 19.0997409820556641
 10.1130523681640625  8.8723020553588867 22.0518436431884766
  4.2967362403869629  4.0015053749084473 16.2149677276611328
  7.1079053878784180  9.1288995742797852 19.0742778778076172
  1.4506049156188965  1.3311122655868530 22.1876964569091797
  4.2683043479919434  6.6205887794494629 25.0266475677490234
  7.3427009582519531  1.3521493673324585 22.3163070678710938
 10.0999603271484375  6.4520993232727051 25.2018775939941406
 10.0540914535522461  3.9046874046325684 25.3942966461181641
 12.9229240417480469  9.1069049835205078 28.1691837310791016
  7.1752815246582031  3.8606803417205811 22.1938552856445312
  9.9799575805664062  8.9769802093505859 25.1115741729736328
  6.9779577255249023  9.1783657073974609 27.7470111846923828
  7.3126306533813477  1.3642684221267700 25.2776432037353516
 10.0076246261596680  6.4158301353454590 28.1771640777587891
  4.3768143653869629  1.3056824207305908 22.2321949005126953
  7.1245880126953125  6.4948563575744629 25.0251045227050781
  1.5133780241012573  1.2972365617752075 19.2209701538085938
  4.2474141120910645  6.4273052215576172 22.0346622467041016
  7.0641918182373047  4.0029778480529785 25.0955734252929688
  9.9271907806396484  9.0437726974487305 28.0013751983642578
  4.2240834236145020  3.8379588127136230 22.1031131744384766
  7.0448641777038574  9.0268955230712891 24.9410686492919922
  6.9151806831359863  6.5419907569885254 27.7590103149414062
  1.5749806165695190  0.2213196903467178 24.9724330902099609
  4.1241192817687988  4.0792436599731445 24.8361644744873047
 10.6953630447387695  6.6168484687805176 30.9443302154541016
 12.8303222656250000  9.2108192443847656 31.0889492034912109
 10.0867500305175781  9.2153863906860352 30.7328071594238281
  4.6440601348876953  1.5090891122817993 25.0550765991210938
 11.9902153015136719  6.4763031005859375 30.9786319732666016
  1.2877466678619385  1.4375971555709839 25.1708431243896484
  8.4809741973876953  3.5796632766723633 27.8939952850341797
