Mn O 
 1.0000000000000000
    11.7465744018554688    0.0000000000000000   -0.0000499999987369
     8.8037967681884766    4.7989687919616699    2.9239220619201660
     0.0000000000000000    0.0000000000000000   35.2208442687988281
 Mn  O  
  22  27
Cartesian
  0.0130813252180815 -0.1287762522697449 14.5233802795410156
  5.8251414299011230 -0.1071563735604286 14.4087028503417969
  7.2784676551818848  2.1801447868347168 15.7028141021728516
 13.1354303359985352  2.1171629428863525 15.8592205047607422
 10.3433351516723633  2.1470251083374023 15.8107099533081055
  4.4611468315124512  2.1736502647399902 15.7656774520874023
 11.7439289093017578  3.4857008457183838 19.0097427368164062
 17.5968265533447266  3.5259652137756348 18.8827419281005859
 -0.0358623452484608 -0.0550544448196888 17.5513801574707031
  5.8771576881408691  0.0087884962558746 17.3813934326171875
  8.8315515518188477  1.3226100206375122 18.7174472808837891
  2.8834586143493652  1.2368105649948120 18.8173561096191406
  0.0021675815805793 -0.1146208345890045 20.5003795623779297
  5.8177714347839355  0.0464622750878334 20.2898578643798828
  7.3218712806701660  2.2857120037078857 21.8639507293701172
 13.2087049484252930  2.4667074680328369 21.8634223937988281
 10.2185964584350586  2.3706324100494385 21.9316692352294922
  4.3398194313049316  2.4297287464141846 21.7691879272460938
 11.9343652725219727  3.7021882534027100 24.9520835876464844
 17.5338840484619141  3.8965499401092529 24.2642250061035156
  0.0697173252701759  0.2668797373771667 23.3968143463134766
  5.5224032402038574  0.0161357168108225 23.2969722747802734
 11.8054351806640625  1.9061053991317749 14.4444551467895508
  5.7764897346496582  1.9438840150833130 14.3478670120239258
  8.7891817092895508  2.7133615016937256 16.9418563842773438
 14.6917285919189453  2.6921021938323975 16.8804130554199219
 11.7887220382690430  2.3734560012817383 17.3070068359375000
  5.8241147994995117  2.4486124515533447 17.1641006469726562
  7.2411084175109863  0.0698675662279129 15.9704647064208984
  1.3682199716567993  0.0089905327185988 16.1573886871337891
 10.3519220352172852  0.0410537868738174 16.1257019042968750
  4.4610853195190430  0.0704409927129745 15.9956102371215820
 10.1047534942626953  4.6972236633300781 21.9186592102050781
  7.2243242263793945 -0.0221576560288668 18.8706855773925781
  4.5347666740417480 -0.0086556123569608 18.7955989837646484
 19.1841869354248047  4.7385358810424805 21.9644412994384766
  8.7895250320434570  2.4142265319824219 20.5204677581787109
 14.6014528274536133  2.5688245296478271 20.4145755767822266
 11.7075710296630859  2.2312974929809570 20.6638793945312500
  5.8614525794982910  2.3163897991180420 20.5353164672851562
  8.7466650009155273  2.4709711074829102 23.1319999694824219
 14.6732301712036133  2.6159038543701172 23.0394744873046875
 11.7662439346313477  2.3004417419433594 23.3396854400634766
  5.7820386886596680  2.1727788448333740 23.1930389404296875
  7.0448098182678223  0.0434001013636589 21.8369960784912109
  1.3744328022003174 -0.1203261315822601 21.9271850585937500
 10.4032945632934570 -0.0062888087704778 21.9827117919921875
  4.3210453987121582  0.3278781771659851 21.5130958557128906
 12.9988718032836914  3.3855330944061279 26.4440441131591797
