Cr O 
 1.0000000000000000
     7.9986119270324707    0.0000000000000000    1.6820659637451172
    -3.2802350521087646    7.2950568199157715   -1.6820659637451172
     0.0000000000000000    0.0000000000000000   34.3984031677246094
 Cr  O  
  32  24
Cartesian
  2.2565321922302246  5.0124087333679199 10.9642572402954102
 -0.1032278165221214  1.3643065690994263 10.9646205902099609
 -0.5765895247459412  6.8324742317199707 13.5646047592163086
  5.0626950263977051  3.1846952438354492 15.2465810775756836
  2.2497520446777344  5.0188298225402832 14.4055347442626953
 -0.1092363148927689  1.3716622591018677 14.4054212570190430
 -0.5680457949638367  6.8307638168334961 10.1229972839355469
  5.0707635879516602  3.1819078922271729 11.8058280944824219
  5.3010120391845703  0.4535640478134155 13.9334611892700195
 -0.3382212817668915  4.1006536483764648 12.2526540756225586
  2.4739041328430176  2.2787585258483887 16.5508079528808594
  4.8330984115600586  5.9262537956237793 16.5509014129638672
  2.4797079563140869  2.2741687297821045 13.0920867919921875
  4.8385457992553711  5.9216775894165039 13.0929965972900391
  5.2947263717651367  0.4567478895187378 17.3919086456298828
 -0.3447112143039703  4.1042170524597168 15.7097845077514648
  2.2438893318176270  5.0161724090576172 17.8501453399658203
 -0.1153078302741051  1.3686499595642090 17.8501396179199219
 -0.5804091095924377  6.8423008918762207 20.4554481506347656
  5.0590372085571289  3.1950144767761230 22.1374778747558594
  2.2391440868377686  5.0183501243591309 21.2965221405029297
 -0.1201672032475471  1.3707827329635620 21.2963333129882812
 -0.5764933824539185  6.8389296531677246 17.0090999603271484
  5.0629506111145020  3.1913888454437256 18.6911735534667969
  5.2959089279174805  0.4623499810695648 20.8322353363037109
 -0.3435891270637512  4.1098351478576660 19.1501998901367188
  2.4633848667144775  2.2851903438568115 23.4332542419433594
  4.8226075172424316  5.9327268600463867 23.4329147338867188
  2.4692914485931396  2.2754056453704834 19.9911766052246094
  4.8284144401550293  5.9228973388671875 19.9912319183349609
  5.2844204902648926  0.4634819626808167 24.2739467620849609
 -0.3549014329910278  4.1114077568054199 22.5921459197998047
  1.4125658273696899  6.8288593292236328 13.9980411529541016
 -0.9468055963516235  3.1814360618591309 13.9980964660644531
  3.3030774593353271  0.4883987307548523 13.5353984832763672
  5.6620044708251953  4.1364607810974121 13.5342397689819336
  2.8384244441986084  5.9348235130310059 16.1274604797363281
  0.4792224168777466  2.2872354984283447 16.1275367736816406
  7.2673745155334473  0.4342579543590546 14.3756332397460938
  1.6279178857803345  4.0825576782226562 12.6943759918212891
  4.4689245223999023  2.2724194526672363 16.9685420989990234
 -1.1704872846603394  5.9199872016906738 15.2865066528320312
 -2.5707821846008301  6.8537487983703613 13.1569538116455078
  3.0687003135681152  3.2064583301544189 14.8392047882080078
  1.8805179595947266  1.3603060245513916 18.2692546844482422
  4.2396988868713379  5.0078425407409668 18.2692813873291016
  1.4159846305847168  6.8104367256164551 20.8723659515380859
 -0.9431076049804688  3.1628553867340088 20.8720760345458984
  3.3049087524414062  0.4649202525615692 20.4023666381835938
  5.6641530990600586  4.1125059127807617 20.4023456573486328
  7.2898182868957520  0.4425839483737946 21.2433834075927734
  1.6503367424011230  4.0901565551757812 19.5613307952880859
 -2.5523564815521240  6.8581295013427734 20.0313758850097656
  3.0869169235229492  3.2106170654296875 21.7131175994873047
  0.2496229559183121  5.0220842361450195 17.4282512664794922
  5.8890395164489746  1.3745414018630981 19.1102809906005859
