Cr O 
 1.0000000000000000
     7.9986119270324707    0.0000000000000000    1.6820659637451172
    -3.2802350521087646    7.2950568199157715   -1.6820659637451172
     0.0000000000000000    0.0000000000000000   34.3984031677246094
 Cr  O  
  32  24
Cartesian
  2.6881623268127441  4.6912603378295898 10.9541711807250977
  0.3298695087432861  1.0440340042114258 10.9541387557983398
 -0.5025140643119812  6.7772078514099121 13.4989748001098633
  5.1372098922729492  3.1297907829284668 15.1809816360473633
  2.3305046558380127  4.9742674827575684 14.3401508331298828
 -0.0286827050149441  1.3260207176208496 14.3398199081420898
 -0.0964657068252563  6.5645828247070312 10.1140336990356445
  5.5434451103210449  2.9180362224578857 11.7954435348510742
  5.4323506355285645  0.3187706470489502 13.8034467697143555
 -0.2069886028766632  3.9664027690887451 12.1214170455932617
  2.4994239807128906  2.2628300189971924 16.5281105041503906
  4.8585500717163086  5.9102768898010254 16.5282306671142578
  2.6563801765441895  2.2099106311798096 12.9623985290527344
  5.0153245925903320  5.8571639060974121 12.9622993469238281
  5.3196949958801270  0.4400360286235809 17.3693275451660156
 -0.3197000622749329  4.0875611305236816 15.6872205734252930
  2.2186918258666992  5.0330209732055664 17.8708000183105469
 -0.1401847153902054  1.3854887485504150 17.8706321716308594
 -0.7124229073524475  6.9757199287414551 20.5947036743164062
  4.9268698692321777  3.3282806873321533 22.2767848968505859
  2.0633528232574463  5.0838747024536133 21.4355850219726562
 -0.2959884405136108  1.4367457628250122 21.4359264373779297
 -0.6020035743713379  6.8544850349426270 17.0295200347900391
  5.0372328758239746  3.2078132629394531 18.7119255065917969
  5.2197785377502441  0.5174639225006104 20.8989658355712891
 -0.4197370707988739  4.1650066375732422 19.2169113159179688
  2.0274016857147217  2.6015434265136719 23.4435195922851562
  4.3863387107849121  6.2489399909973145 23.4438285827636719
  2.3877015113830566  2.3221530914306641 20.0578651428222656
  4.7469863891601562  5.9699091911315918 20.0579586029052734
  4.8172440528869629  0.7314566969871521 24.2846202850341797
 -0.8219659328460693  4.3790788650512695 22.6027641296386719
  1.5021612644195557  6.8026862144470215 13.9301538467407227
 -0.8568978905677795  3.1548907756805420 13.9297904968261719
  3.4292054176330566  0.3995380997657776 13.4257040023803711
  5.7884812355041504  4.0468196868896484 13.4257106781005859
  2.8469123840332031  5.8913130760192871 16.1037845611572266
  0.4880574643611908  2.2432768344879150 16.1036224365234375
  7.4007620811462402  0.3559105992317200 14.2663669586181641
  1.7612191438674927  4.0038199424743652 12.5847749710083008
  4.5124249458312988  2.2827203273773193 16.9447269439697266
 -1.1270380020141602  5.9297780990600586 15.2626581192016602
 -2.5099658966064453  6.7826271057128906 13.0887880325317383
  3.1296906471252441  3.1354923248291016 14.7709836959838867
  1.8713549375534058  1.4044488668441772 18.2944011688232422
  4.2303156852722168  5.0522041320800781 18.2947940826416016
  1.2905441522598267  6.8955073356628418 20.9731388092041016
 -1.0688073635101318  3.2482352256774902 20.9733695983886719
  3.2155423164367676  0.4937836527824402 20.4685153961181641
  5.5744285583496094  4.1417441368103027 20.4685974121093750
  7.2267041206359863  0.5126754641532898 21.3095531463623047
  1.5871508121490479  4.1596603393554688 19.6275043487548828
 -2.6816437244415283  6.9378857612609863 20.1324195861816406
  2.9577686786651611  3.2900145053863525 21.8141517639160156
  0.2053661346435547  5.0122370719909668 17.4535350799560547
  5.8449597358703613  1.3651931285858154 19.1357879638671875
