V  O 
 1.0000000000000000
    10.8729696273803711    0.0000000000000000    0.0000000000000000
     1.3628820180892944   10.0752592086791992   -4.5049557685852051
     0.0000000000000000    0.0000000000000000   31.5346927642822266
 V   O  
  28  64
Cartesian
  3.1160461902618408  9.4767208099365234  8.3862848281860352
  8.5526647567749023  9.4766063690185547  8.3865137100219727
  8.2264070510864258  3.7322866916656494 10.8853092193603516
  2.7898979187011719  3.7317450046539307 10.8851709365844727
  4.3763351440429688  6.1995143890380859 10.9281768798828125
  9.8132896423339844  6.1987557411193848 10.9278182983398438
  9.6324090957641602  0.8708712458610535 12.6280584335327148
  4.1958832740783691  0.8706453442573547 12.6282281875610352
  5.4528694152832031  3.6592347621917725 13.0487012863159180
 10.8891305923461914  3.6593432426452637 13.0488309860229492
  5.8492002487182617  8.7846069335937500 10.9428129196166992
 11.2856655120849609  8.7845268249511719 10.9429674148559570
  6.1704797744750977  1.2489284276962280 15.4773893356323242
  0.7341496348381042  1.2489476203918457 15.4772052764892578
  6.9471387863159180  6.2695093154907227 13.1614675521850586
  1.5108942985534668  6.2694020271301270 13.1617040634155273
  3.1136174201965332  8.9509315490722656 13.2007369995117188
  8.5503196716308594  8.9509201049804688 13.2005271911621094
  8.0584621429443359  3.6607849597930908 15.3450622558593750
  2.6218259334564209  3.6607253551483154 15.3451747894287109
  4.0342669486999512  6.2404675483703613 15.2895765304565430
  9.4707698822021484  6.2407364845275879 15.2893476486206055
  8.3864812850952148  1.6872262954711914 18.1913204193115234
  2.9505877494812012  1.6870512962341309 18.1911487579345703
  5.3913693428039551  3.1548645496368408 17.9754962921142578
 10.8278903961181641  3.1549303531646729 17.9753761291503906
  5.7099089622497559  8.8464927673339844 15.3651971817016602
 11.1461868286132812  8.8461112976074219 15.3650875091552734
  7.7961974143981934  3.0222332477569580  9.5125789642333984
  2.3606390953063965  3.0189025402069092  9.5135908126831055
  4.2053074836730957  4.7776260375976562  9.9814739227294922
  9.6448154449462891  4.7761125564575195  9.9825086593627930
  0.0744985342025757  0.0497050806879997 11.9403162002563477
  5.5110149383544922  0.0495782345533371 11.9404706954956055
  8.1527538299560547  0.5018518567085266 11.7072515487670898
  2.7163953781127930  0.5020585060119629 11.7073345184326172
  3.1566991806030273  7.9342961311340332  7.9550957679748535
  8.5932579040527344  7.9341020584106445  7.9554829597473145
  5.4674668312072754  7.1548881530761719  9.9517297744750977
 10.9040784835815430  7.1550221443176270  9.9518079757690430
  6.6638641357421875  3.2944197654724121 11.8151655197143555
  1.2270088195800781  3.2952241897583008 11.8148946762084961
  9.4156780242919922  2.7727715969085693 11.9386997222900391
  3.9792404174804688  2.7729630470275879 11.9386777877807617
  4.8897094726562500  9.7619485855102539  9.3665504455566406
 10.3262672424316406  9.7619810104370117  9.3665628433227539
  2.2073612213134766  9.5901861190795898  9.9530048370361328
  7.6438188552856445  9.5902805328369141  9.9530076980590820
  8.0388298034667969  5.6524634361267090 11.5784683227539062
  2.6023318767547607  5.6529202461242676 11.5804204940795898
  5.3520898818969727  5.5424990653991699 12.2592182159423828
 10.7881202697753906  5.5431156158447266 12.2603454589843750
  5.2178006172180176  1.9453645944595337 13.8864879608154297
 10.6544494628906250  1.9453510046005249 13.8864946365356445
  7.8471636772155762  2.0975093841552734 14.6243991851806641
  2.4109027385711670  2.0976176261901855 14.6243848800659180
  4.2329540252685547  8.1582059860229492 11.8124380111694336
  9.6696281433105469  8.1586570739746094 11.8125944137573242
  6.9895110130310059  8.0631732940673828 12.1138486862182617
  1.5528835058212280  8.0632944107055664 12.1141538619995117
  6.9589018821716309  4.5689182281494141 14.0125684738159180
  1.5222154855728149  4.5689072608947754 14.0130529403686523
  4.2940664291381836  4.4687223434448242 14.5144805908203125
  9.7305059432983398  4.4684433937072754 14.5145273208618164
 10.2012786865234375  0.5501289963722229 16.2339363098144531
  4.7648835182189941  0.5500066876411438 16.2338237762451172
  7.4040074348449707  0.6237094998359680 16.9163990020751953
  1.9676488637924194  0.6234419345855713 16.9163265228271484
  3.1471385955810547  7.0079469680786133 13.9529371261596680
  8.5837554931640625  7.0074415206909180 13.9520378112792969
  5.9044804573059082  6.9803314208984375 14.4588613510131836
 11.3413267135620117  6.9803552627563477 14.4603548049926758
  6.2840924263000488  3.0641021728515625 16.3783569335937500
  0.8476683497428894  3.0641126632690430 16.3785896301269531
  9.0612125396728516  2.9202740192413330 17.0153884887695312
  3.6245772838592529  2.9202635288238525 17.0155334472656250
  4.5131530761718750  9.8138494491577148 14.3568429946899414
  9.9496049880981445  9.8140974044799805 14.3568496704101562
  1.8382363319396973  9.2398500442504883 14.3987436294555664
  7.2750930786132812  9.2392444610595703 14.3990631103515625
  8.2647466659545898  5.4841775894165039 16.2432365417480469
  2.8283762931823730  5.4841980934143066 16.2435321807861328
  5.3519778251647949  4.6824407577514648 18.4537258148193359
 10.7884778976440430  4.6824455261230469 18.4537010192871094
  4.4311590194702148  2.0139906406402588 19.1294975280761719
  9.8677902221679688  2.0141656398773193 19.1297016143798828
  7.0623545646667480  2.4760384559631348 18.9026088714599609
  1.6254616975784302  2.4760899543762207 18.9028701782226562
  4.5146942138671875  7.6189322471618652 16.2625808715820312
  9.9491004943847656  7.6199173927307129 16.2621002197265625
  6.1267361640930176  9.6376523971557617 16.6979484558105469
 11.5639495849609375  9.6361389160156250 16.6982078552246094
