V  O 
 1.0000000000000000
    10.8729696273803711    0.0000000000000000    0.0000000000000000
     1.3628820180892944   10.0752592086791992   -4.5049557685852051
     0.0000000000000000    0.0000000000000000   31.5346927642822266
 V   O  
  28  64
Cartesian
  3.2297759056091309  8.8598585128784180  8.7529850006103516
  8.6663875579833984  8.8621625900268555  8.7518539428710938
  7.8703279495239258  3.9594821929931641 10.7908248901367188
  2.4334938526153564  3.9603343009948730 10.7912111282348633
  4.3681211471557617  6.2587189674377441 10.7330846786499023
  9.8039026260375977  6.2588682174682617 10.7325811386108398
  9.0461387634277344  1.2159425020217896 12.9789962768554688
  3.6033487319946289  1.2198359966278076 12.9854164123535156
  5.3328099250793457  3.7219066619873047 13.0576715469360352
 10.7685127258300781  3.7217168807983398 13.0582885742187500
  5.9637331962585449  8.7552680969238281 10.8679866790771484
 11.3994779586791992  8.7547979354858398 10.8676767349243164
  6.2973442077636719  1.2324624061584473 15.4287128448486328
  0.8597770929336548  1.2329862117767334 15.4284858703613281
  6.9645552635192871  6.3158698081970215 13.1530933380126953
  1.5276964902877808  6.3160166740417480 13.1533107757568359
  3.2047226428985596  8.8376550674438477 13.1714563369750977
  8.6412401199340820  8.8376426696777344 13.1713190078735352
  7.9762549400329590  3.8650441169738770 15.4050254821777344
  2.5398015975952148  3.8656721115112305 15.4054775238037109
  4.1634659767150879  6.2669873237609863 15.5872516632080078
  9.5990638732910156  6.2662911415100098 15.5872726440429688
  8.9814434051513672  1.3166137933731079 17.7316951751708984
  3.5451896190643311  1.3166375160217285 17.7319564819335938
  5.2606997489929199  3.6560595035552979 17.5290241241455078
 10.6971330642700195  3.6559932231903076 17.5289916992187500
  6.0163846015930176  8.7025985717773438 15.4009990692138672
 11.4528274536132812  8.7031021118164062 15.4008398056030273
  6.9674696922302246  4.4344873428344727  9.6435747146606445
  1.5314067602157593  4.4339394569396973  9.6440362930297852
  4.0710926055908203  4.5728392601013184 10.0599718093872070
  9.5079269409179688  4.5728721618652344 10.0600519180297852
 10.0387859344482422  0.5406131148338318 11.8998174667358398
  4.6053247451782227  0.5382581949234009 11.8955993652343750
  7.4838008880615234  0.4065871834754944 12.2862586975097656
  2.0506372451782227  0.4077648818492889 12.2849559783935547
  3.1795229911804199  7.1789002418518066  9.4689159393310547
  8.6160249710083008  7.1784334182739258  9.4692802429199219
  5.7301111221313477  7.0468068122863770 10.0630006790161133
 11.1669950485229492  7.0475587844848633 10.0630664825439453
  6.4472594261169434  3.1022975444793701 11.7844181060791016
  1.0113455057144165  3.1023790836334229 11.7836799621582031
  9.0887174606323242  2.9744327068328857 12.2404069900512695
  3.6519877910614014  2.9743142127990723 12.2405490875244141
  4.7891306877136230  9.5502958297729492  9.5058259963989258
 10.2260074615478516  9.5502395629882812  9.5058202743530273
  2.1098246574401855  9.5614433288574219  9.9489955902099609
  7.5459480285644531  9.5615167617797852  9.9497842788696289
  8.0901679992675781  5.5146985054016113 11.7882776260375977
  2.6537973880767822  5.5144186019897461 11.7882061004638672
  5.3679695129394531  5.5556116104125977 12.2430286407470703
 10.8047294616699219  5.5554695129394531 12.2433528900146484
  5.1350550651550293  1.9943031072616577 14.0436534881591797
 10.5723295211791992  1.9953817129135132 14.0452318191528320
  7.8737220764160156  2.0080094337463379 14.4965686798095703
  2.4380776882171631  2.0077791213989258 14.4957475662231445
  4.3416247367858887  8.0414857864379883 11.7963457107543945
  9.7782869338989258  8.0416698455810547 11.7963838577270508
  7.0724549293518066  8.0432052612304688 12.2361221313476562
  1.6360940933227539  8.0433654785156250 12.2361593246459961
  6.8558006286621094  4.5436449050903320 14.0350542068481445
  1.4195189476013184  4.5433850288391113 14.0352611541748047
  4.1624822616577148  4.5648627281188965 14.4773254394531250
  9.5991277694702148  4.5651388168334961 14.4772663116455078
 10.1444034576416016  0.4946582317352295 16.2742462158203125
  4.7076582908630371  0.4947023689746857 16.2743396759033203
  7.4015622138977051  0.5106019377708435 16.7333583831787109
  1.9648782014846802  0.5105903744697571 16.7331886291503906
  3.1285243034362793  7.0454769134521484 14.0387878417968750
  8.5651149749755859  7.0454692840576172 14.0388851165771484
  5.8438172340393066  7.0803689956665039 14.4925842285156250
 11.2804946899414062  7.0801591873168945 14.4924240112304688
  6.3943419456481934  3.0327839851379395 16.3150405883789062
  0.9580186009407043  3.0328276157379150 16.3152294158935547
  9.1461992263793945  3.0686852931976318 16.7528839111328125
  3.7094619274139404  3.0686995983123779 16.7524662017822266
  4.8376793861389160  9.5683507919311523 14.0645618438720703
 10.2741041183471680  9.5685415267944336 14.0643606185913086
  2.0274364948272705  9.4968051910400391 14.5230073928833008
  7.4637818336486816  9.4967374801635742 14.5232667922973633
  8.2013397216796875  5.5437407493591309 16.2192497253417969
  2.7644956111907959  5.5430250167846680 16.2191677093505859
  5.3143992424011230  5.4593076705932617 16.7782611846923828
 10.7509679794311523  5.4592976570129395 16.7783603668212891
  5.1308646202087402  2.1621806621551514 18.5203075408935547
 10.5674409866333008  2.1622855663299561 18.5202617645263672
  7.9234085083007812  2.0004138946533203 18.9533271789550781
  2.4869029521942139  2.0004508495330811 18.9532928466796875
  4.4445867538452148  8.0430307388305664 16.2226409912109375
  9.8809452056884766  8.0429172515869141 16.2226352691650391
  6.9873399734497070  8.1414079666137695 16.6582832336425781
  1.5511965751647949  8.1410932540893555 16.6586322784423828
