Co O 
 1.0000000000000000
     9.7551317214965820    0.0000000000000000    0.0000000000000000
     0.0000000000000000    9.1972265243530273    0.0000000000000000
     0.0000000000000000    0.0000000000000000   39.0205307006835938
 Co  O  
  48  48
Cartesian
  1.6258130073547363  1.1451562643051147 18.6850337982177734
  1.6258304119110107  5.7436375617980957 18.6847057342529297
  4.8774962425231934  1.1449251174926758 18.6843757629394531
  4.8774924278259277  5.7437634468078613 18.6847419738769531
  8.1292047500610352  1.1450853347778320 18.6849021911621094
  8.1291980743408203  5.7436871528625488 18.6847209930419922
  1.6271324157714844  1.0868190526962280 15.3445272445678711
  1.6266689300537109  5.6855416297912598 15.3445272445678711
  4.8786978721618652  1.0868251323699951 15.3439388275146484
  4.8784408569335938  5.6854939460754395 15.3443574905395508
  8.1304864883422852  1.0871253013610840 15.3449935913085938
  8.1298856735229492  5.6854972839355469 15.3445129394531250
  9.7545661926269531  3.6196131706237793 14.0549421310424805
  9.7545738220214844  8.2178173065185547 14.0545806884765625
  3.2509126663208008  3.6196205615997314 14.0549182891845703
  3.2521932125091553  8.2185859680175781 14.0554914474487305
  6.5027303695678711  3.6196930408477783 14.0549716949462891
  6.5026483535766602  8.2186479568481445 14.0552339553833008
  3.2516908645629883  3.4501318931579590 17.0537948608398438
  3.2517518997192383  8.0488138198852539 17.0537662506103516
  6.5032172203063965  3.4501690864562988 17.0538101196289062
  6.5034399032592773  8.0488929748535156 17.0537319183349609
  9.7550516128540039  3.4501531124114990 17.0537548065185547
 -0.0000612622316112  8.0486030578613281 17.0538330078125000
  1.6255309581756592  1.3206576108932495 24.9643058776855469
  1.6268628835678101  5.9189553260803223 24.9652996063232422
  4.8766846656799316  1.3210103511810303 24.9647445678710938
  4.8777565956115723  5.9192609786987305 24.9652309417724609
  8.1283082962036133  1.3200521469116211 24.9651641845703125
  8.1288471221923828  5.9189739227294922 24.9654788970947266
  1.6255605220794678  1.1508401632308960 21.9668464660644531
  1.6262887716293335  5.7494220733642578 21.9667663574218750
  4.8774399757385254  1.1510344743728638 21.9667854309082031
  4.8775691986083984  5.7495007514953613 21.9669494628906250
  8.1290836334228516  1.1506994962692261 21.9667835235595703
  8.1291875839233398  5.7494559288024902 21.9666347503662109
  3.2516846656799316  3.4442520141601562 20.3362388610839844
  3.2516543865203857  8.0429992675781250 20.3359966278076172
  6.5033717155456543  3.4443657398223877 20.3358898162841797
  6.5033860206604004  8.0429792404174805 20.3359680175781250
 -0.0000239976252487  3.4445545673370361 20.3353309631347656
 -0.0000429225801781  8.0430574417114258 20.3356723785400391
  3.2518978118896484  3.3856070041656494 23.6776351928710938
  3.2528278827667236  7.9848709106445312 23.6761493682861328
  6.5030035972595215  3.3862216472625732 23.6760559082031250
  6.5045013427734375  7.9848461151123047 23.6760044097900391
  0.0001096476844396  3.3865997791290283 23.6745319366455078
  0.0010131680173799  7.9844422340393066 23.6762409210205078
  9.7550573348999023  2.3050513267517090 18.6858215332031250
  9.7550830841064453  6.9036059379577637 18.6859302520751953
  3.2517409324645996  2.3051307201385498 18.6860942840576172
  3.2516522407531738  6.9037899971008301 18.6859779357910156
  6.5032854080200195  2.3050920963287354 18.6859035491943359
  6.5033597946166992  6.9037876129150391 18.6859359741210938
  3.2533414363861084  2.2695331573486328 15.3955726623535156
  3.2520558834075928  6.8682560920715332 15.3954906463623047
  6.5041503906250000  2.2695496082305908 15.3955621719360352
  6.5043768882751465  6.8681473731994629 15.3955678939819336
  0.0010286786127836  2.2695627212524414 15.3956413269042969
  0.0010433113202453  6.8680849075317383 15.3956966400146484
  1.6253601312637329  9.1193218231201172 13.7809591293334961
  1.6241095066070557  4.5203142166137695 13.7794609069824219
  4.8768205642700195  9.1191635131835938 13.7773847579956055
  4.8757967948913574  4.5206732749938965 13.7798957824707031
  8.1280345916748047  9.1187238693237305 13.7805757522583008
  8.1275110244750977  4.5203704833984375 13.7796545028686523
  1.6259032487869263  9.1947860717773438 17.0516052246093750
  1.6259245872497559  4.5961508750915527 17.0513896942138672
  4.8776578903198242  9.1948556900024414 17.0509071350097656
  4.8775610923767090  4.5962934494018555 17.0512924194335938
  8.1293153762817383  9.1948242187500000 17.0515995025634766
  8.1291141510009766  4.5961103439331055 17.0514144897460938
  3.2502217292785645  2.2220201492309570 25.2437324523925781
  3.2524950504302979  6.8198013305664062 25.2414093017578125
  6.5008668899536133  2.2211070060729980 25.2413253784179688
  6.5037531852722168  6.8195042610168457 25.2415447235107422
  9.7535886764526367  2.2204124927520752 25.2383766174316406
  0.0005456045037135  6.8196191787719727 25.2400722503662109
  9.7549037933349609  2.2968330383300781 21.9682903289794922
  0.0001889569102786  6.8952221870422363 21.9689865112304688
  3.2516233921051025  2.2969067096710205 21.9699859619140625
  3.2520546913146973  6.8956880569458008 21.9693717956542969
  6.5032773017883301  2.2968976497650146 21.9692764282226562
  6.5032930374145508  6.8954849243164062 21.9692649841308594
  1.6258639097213745  0.0057937931269407 20.3347415924072266
  1.6259646415710449  4.6043777465820312 20.3345985412597656
  4.8775081634521484  0.0059068272821605 20.3346614837646484
  4.8775057792663574  4.6044359207153320 20.3347263336181641
  8.1291637420654297  0.0057259174063802 20.3345928192138672
  8.1291723251342773  4.6043848991394043 20.3345375061035156
  1.6270850896835327  9.1673622131347656 23.6249408721923828
  1.6261465549468994  4.5687303543090820 23.6249351501464844
  4.8783493041992188  9.1676635742187500 23.6252155303955078
  4.8773388862609863  4.5685873031616211 23.6250553131103516
  8.1300401687622070  9.1671733856201172 23.6247463226318359
  8.1294031143188477  4.5688004493713379 23.6248474121093750
