Co O 
 1.0000000000000000
     9.7551317214965820    0.0000000000000000    0.0000000000000000
     0.0000000000000000    9.1972265243530273    0.0000000000000000
     0.0000000000000000    0.0000000000000000   39.0205307006835938
 Co  O  
  48  48
Cartesian
  1.6258565187454224  1.1487917900085449 18.6967067718505859
  1.6258562803268433  5.7474055290222168 18.6967048645019531
  4.8775668144226074  1.1487921476364136 18.6967067718505859
  4.8775658607482910  5.7474060058593750 18.6967048645019531
  8.1292743682861328  1.1487905979156494 18.6967048645019531
  8.1292753219604492  5.7474060058593750 18.6967048645019531
  1.6258556842803955  1.1288496255874634 15.4205121994018555
  1.6258565187454224  5.7274503707885742 15.4204921722412109
  4.8775691986083984  1.1288441419601440 15.4205036163330078
  4.8775668144226074  5.7274580001831055 15.4204978942871094
  8.1292743682861328  1.1288335323333740 15.4204864501953125
  8.1292762756347656  5.7274565696716309 15.4204902648925781
  0.0000025363342502  3.5118112564086914 13.8595275878906250
 -0.0000069261436693  8.1104164123535156 13.8595256805419922
  3.2517094612121582  3.5118048191070557 13.8595218658447266
  3.2517137527465820  8.1104135513305664 13.8595199584960938
  6.5034232139587402  3.5118062496185303 13.8595247268676758
  6.5034265518188477  8.1104135513305664 13.8595237731933594
  3.2517087459564209  3.4531190395355225 17.0708580017089844
  3.2517111301422119  8.0517215728759766 17.0708541870117188
  6.5034232139587402  3.4531178474426270 17.0708580017089844
  6.5034251213073730  8.0517253875732422 17.0708541870117188
  0.0000001951026434  3.4531216621398926 17.0708599090576172
 -0.0000039996039050  8.0517253875732422 17.0708541870117188
  1.6258627176284790  1.2126003503799438 25.1609687805175781
  1.6258503198623657  5.8112182617187500 25.1609630584716797
  4.8775691986083984  1.2126113176345825 25.1609573364257812
  4.8775658607482910  5.8112177848815918 25.1609649658203125
  8.1292715072631836  1.2125999927520752 25.1609668731689453
  8.1292810440063477  5.8112158775329590 25.1609649658203125
  1.6258596181869507  1.1538591384887695 21.9496421813964844
  1.6258537769317627  5.7524771690368652 21.9496402740478516
  4.8775668144226074  1.1538687944412231 21.9496383666992188
  4.8775658607482910  5.7524724006652832 21.9496421813964844
  8.1292715072631836  1.1538598537445068 21.9496421813964844
  8.1292791366577148  5.7524757385253906 21.9496421813964844
  3.2517099380493164  3.4480926990509033 20.3238067626953125
  3.2517089843750000  8.0467061996459961 20.3238048553466797
  6.5034222602844238  3.4480922222137451 20.3238067626953125
  6.5034232139587402  8.0467061996459961 20.3238048553466797
 -0.0000001951026434  3.4480950832366943 20.3238048553466797
 -0.0000002926539651  8.0467052459716797 20.3238067626953125
  3.2517139911651611  3.4280295372009277 23.6000900268554688
  3.2517061233520508  8.0266532897949219 23.6000785827636719
  6.5034203529357910  3.4280271530151367 23.6000957489013672
  6.5034265518188477  8.0266542434692383 23.6000766754150391
 -0.0000003902052867  3.4280495643615723 23.6000671386718750
  0.0000004877566084  8.0266389846801758 23.6000957489013672
  0.0000009755132169  2.2995574474334717 18.6957530975341797
  0.0000003902052867  6.8981704711914062 18.6957530975341797
  3.2517092227935791  2.2995574474334717 18.6957530975341797
  3.2517094612121582  6.8981714248657227 18.6957530975341797
  6.5034222602844238  2.2995593547821045 18.6957511901855469
  6.5034217834472656  6.8981714248657227 18.6957530975341797
  3.2517106533050537  2.3048141002655029 15.4219417572021484
  3.2516982555389404  6.9034280776977539 15.4219636917114258
  6.5034127235412598  2.3048169612884521 15.4219417572021484
  6.5034046173095703  6.9034280776977539 15.4219579696655273
 -0.0000017559237904  2.3048150539398193 15.4219341278076172
  0.0000234123162954  6.9034285545349121 15.4219560623168945
  1.6258556842803955 -0.0509230233728886 13.8195247650146484
  1.6258583068847656  4.5477151870727539 13.8195343017578125
  4.8775701522827148 -0.0509031563997269 13.8195219039916992
  4.8775672912597656  4.5477042198181152 13.8195323944091797
  8.1292743682861328 -0.0508714243769646 13.8195209503173828
  8.1292781829833984  4.5477128028869629 13.8195343017578125
  1.6258568763732910 -0.0001727239286993 17.0764217376708984
  1.6258562803268433  4.5984272956848145 17.0764312744140625
  4.8775649070739746 -0.0001775984565029 17.0764255523681641
  4.8775658607482910  4.5984287261962891 17.0764274597167969
  8.1292762756347656 -0.0001818291784730 17.0764293670654297
  8.1292762756347656  4.5984282493591309 17.0764274597167969
  3.2517156600952148  2.2483336925506592 25.2008266448974609
  3.2517049312591553  6.8469233512878418 25.2008266448974609
  6.5034222602844238  2.2483437061309814 25.2008285522460938
  6.5034260749816895  6.8469228744506836 25.2008285522460938
  0.0000019510264337  2.2482912540435791 25.2008304595947266
 -0.0000001951026434  6.8469619750976562 25.2008304595947266
  0.0000004877566084  2.2991042137145996 21.9441032409667969
 -0.0000000975513217  6.8977098464965820 21.9440898895263672
  3.2517094612121582  2.2990977764129639 21.9440937042236328
  3.2517092227935791  6.8977160453796387 21.9440994262695312
  6.5034222602844238  2.2990939617156982 21.9440917968750000
  6.5034222602844238  6.8977169990539551 21.9440994262695312
  1.6258571147918701  0.0002560507855378 20.3248043060302734
  1.6258558034896851  4.5988683700561523 20.3248081207275391
  4.8775658607482910  0.0002552230434958 20.3248081207275391
  4.8775658607482910  4.5988693237304688 20.3248081207275391
  8.1292753219604492  0.0002561427827459 20.3248062133789062
  8.1292762756347656  4.5988693237304688 20.3248081207275391
  1.6258318424224854  0.0055664377287030 23.5987663269042969
  1.6258740425109863  4.6041769981384277 23.5987739562988281
  4.8775563240051270  0.0055616549216211 23.5987873077392578
  4.8775663375854492  4.6041798591613770 23.5987682342529297
  8.1292943954467773  0.0055666216649115 23.5987682342529297
  8.1292591094970703  4.6041774749755859 23.5987720489501953
