Cu O 
 1.0000000000000000
     8.1217241287231445    0.0000000000000000    0.0000000000000000
     0.0000000000000000   10.3115978240966797   -4.7001461982727051
     0.0000000000000000    0.0000000000000000   38.2452316284179688
 Cu  O  
  44  42
Cartesian
  3.0089235305786133  2.5866506099700928 13.4086656570434570
  7.0723466873168945  2.5870978832244873 13.4100303649902344
  3.0439298152923584  7.7309613227844238 13.1991577148437500
  7.0960316658020020  7.7373619079589844 13.1959524154663086
  3.0647358894348145 -0.0231163334101439 15.6381855010986328
  7.1302652359008789 -0.0229086577892303 15.6446809768676758
  3.0351645946502686  5.1494131088256836 11.2322511672973633
  7.1431789398193359  5.1968278884887695 11.1739110946655273
  1.0096513032913208  2.5831365585327148 15.5438718795776367
  5.0696110725402832  2.5835065841674805 15.5434074401855469
  0.9552063345909119  7.7089700698852539 11.0284519195556641
  5.0453348159790039  7.7416143417358398 11.0557985305786133
  1.0053566694259644 -0.0084042614325881 13.5864830017089844
  5.0680856704711914 -0.0063906130380929 13.5842390060424805
  1.0366051197052002  5.1308670043945312 13.2975521087646484
  5.0892009735107422  5.1340003013610840 13.3015356063842773
  3.0456120967864990  2.5784332752227783 17.6811771392822266
  7.1071314811706543  2.5789935588836670 17.6835823059082031
  3.0511507987976074  7.7284154891967773 17.4696292877197266
  7.1129159927368164  7.7280583381652832 17.4700050354003906
  3.0499777793884277  0.0029281845781952 19.9181156158447266
  7.1035313606262207  0.0052585024386644 19.9213733673095703
  3.0473840236663818  5.1515512466430664 15.4451189041137695
  7.1081056594848633  5.1504311561584473 15.4445104598999023
  1.0169306993484497  2.5805177688598633 19.8143234252929688
  5.0866127014160156  2.5741868019104004 19.8176555633544922
  1.0151706933975220  7.7330875396728516 15.3322248458862305
  5.0753736495971680  7.7324576377868652 15.3298683166503906
  1.0107556581497192 -0.0027567027136683 17.7964725494384766
  5.0791282653808594 -0.0050908359698951 17.7929649353027344
  1.0133919715881348  5.1601872444152832 17.5690727233886719
  5.0744409561157227  5.1612739562988281 17.5698356628417969
  3.1057350635528564  2.6025447845458984 21.9854049682617188
  7.1373186111450195  2.5701022148132324 21.9581336975097656
  3.0553948879241943  0.0083104260265827 24.1278038024902344
  7.1140155792236328  0.0063991714268923 24.1305656433105469
  3.0242869853973389  5.1807842254638672 19.7165660858154297
  7.0933780670166016  5.1775784492492676 19.7126579284667969
  1.0518915653228760  7.7247214317321777 19.6049556732177734
  5.1101756095886230  7.7244157791137695 19.6038227081298828
  0.9960642457008362  0.0231385044753551 22.0763511657714844
  5.0523314476013184  0.0229309312999249 22.0698127746582031
  1.0260910987854004  5.1621623039245605 21.7811717987060547
  5.0393223762512207  5.1149845123291016 21.8402862548828125
  2.1043555736541748  3.8280167579650879 12.3389310836791992
  6.1704416275024414  3.8543505668640137 12.3227767944335938
  2.0875077247619629  9.0206222534179688 12.0867948532104492
  6.1678833961486816  9.0513410568237305 12.1080274581909180
  1.9686275720596313  6.4819440841674805 12.1891059875488281
  6.0026350021362305  6.4649529457092285 12.2037057876586914
  0.0784365236759186  3.8967876434326172 14.4565849304199219
  4.1404714584350586  3.8970108032226562 14.4564743041992188
  0.0761405974626541  9.0277824401855469  9.9855251312255859
  4.1315422058105469  8.9855833053588867  9.9847698211669922
  3.9903626441955566  1.3201228380203247 14.5308628082275391
  8.0470142364501953  1.3153228759765625 14.5278663635253906
  8.0669240951538086  6.4023313522338867 10.1604270935058594
  2.0870816707611084  3.8680429458618164 16.5656814575195312
  6.1467876434326172  3.8678200244903564 16.5657043457031250
  2.0823178291320801  9.0230407714843750 16.3375434875488281
  6.1464834213256836  9.0266075134277344 16.3396549224853516
  1.9785851240158081  1.2884159088134766 16.6758613586425781
  6.0361709594726562  1.2851319313049316 16.6744632720947266
  1.9736121892929077  6.4436254501342773 16.4480781555175781
  6.0359244346618652  6.4436173439025879 16.4483528137207031
  0.0512796714901924  3.8711400032043457 18.6904449462890625
  4.1137595176696777  3.8695285320281982 18.6908798217773438
  0.0568773262202740  9.0209321975708008 14.2152557373046875
  4.1141982078552246  9.0253400802612305 14.2150907516479492
  4.0041618347167969  1.2903709411621094 18.7989387512207031
  8.0682001113891602  1.2865813970565796 18.7987384796142578
  4.0094337463378906  6.4404587745666504 14.3232841491699219
  8.0690059661865234  6.4422388076782227 14.3232698440551758
  2.0922353267669678  3.8299221992492676 20.8247871398925781
  6.1798777580261230  3.8463821411132812 20.8099861145019531
  1.9736032485961914  1.2910156250000000 20.9268989562988281
  6.0144286155700684  1.2603396177291870 20.9057750701904297
  1.9565074443817139  6.4835247993469238 20.6747722625732422
  6.0121059417724609  6.4572687149047852 20.6909923553466797
  4.1156082153320312  3.9092805385589600 22.8532142639160156
  0.0707643404603004  8.9908657073974609 18.4829673767089844
  4.1356983184814453  8.9963197708129883 18.4859848022460938
  3.9847452640533447  1.2836930751800537 23.0283298492431641
  8.0510120391845703  1.3262270689010620 23.0289363861083984
  3.9825062751770020  6.4147872924804688 18.5574836730957031
  8.0424318313598633  6.4148449897766113 18.5577716827392578
