Cu O 
 1.0000000000000000
     8.1217241287231445    0.0000000000000000    0.0000000000000000
     0.0000000000000000   10.3115978240966797   -4.7001461982727051
     0.0000000000000000    0.0000000000000000   38.2452316284179688
 Cu  O  
  44  42
Cartesian
  2.8321735858917236  2.3320794105529785 13.5043334960937500
  7.0154743194580078  2.7760262489318848 13.3996200561523438
  3.0576586723327637  7.7494764328002930 13.2110595703125000
  7.0747017860412598  7.7599520683288574 13.2176790237426758
  3.0358626842498779 10.2033462524414062 10.9116506576538086
  7.1149153709411621  0.0040039937011898 15.6104955673217773
  2.8366553783416748  4.8469953536987305 11.6551752090454102
  7.1852302551269531  5.2637848854064941 11.3424148559570312
  0.9891767501831055  2.5722115039825439 15.5355014801025391
  5.0775547027587891  2.6076967716217041 15.4948110580444336
  0.9906955361366272  7.6839618682861328 11.0789270401000977
  4.9618701934814453  7.7679252624511719 11.1469507217407227
  1.1343181133270264  0.2010913193225861 13.9316701889038086
  4.9690518379211426 10.0517292022705078  9.2424097061157227
  1.0249142646789551  5.0769448280334473 13.3267822265625000
  5.0665326118469238  5.1587581634521484 13.2814149856567383
  3.0374464988708496  2.5699360370635986 17.6689491271972656
  7.1026854515075684  2.5632929801940918 17.6733646392822266
  3.0695180892944336  7.7412562370300293 17.4821605682373047
  7.1051049232482910  7.7048401832580566 17.5192508697509766
  3.0403463840484619  0.0176966618746519 19.9331207275390625
  7.0985054969787598 10.2808475494384766 15.2153253555297852
  3.0610942840576172  5.1576724052429199 15.4554471969604492
  7.1200118064880371  5.2053079605102539 15.4833040237426758
  1.0040274858474731  2.5596518516540527 19.8001289367675781
  5.1085658073425293  2.5500464439392090 19.7956619262695312
  1.0240973234176636  7.7406635284423828 15.3444700241088867
  5.0799479484558105  7.7482080459594727 15.3401126861572266
  1.0191037654876709 10.2923955917358398 13.0814580917358398
  5.0821995735168457  0.0297460723668337 17.7996616363525391
  1.0018494129180908  5.1539516448974609 17.5562648773193359
  5.0621132850646973  5.1068472862243652 17.5292205810546875
  3.0684356689453125  2.6276073455810547 21.9347076416015625
  7.2233939170837402  2.5440773963928223 21.8660774230957031
  2.9240899085998535 10.1123905181884766 19.0841903686523438
  7.2168002128601074  0.2642928659915924 23.7779407501220703
  3.0364327430725098  5.2333431243896484 19.6859035491943359
  7.1172776222229004  5.1521883010864258 19.7298717498779297
  1.2283632755279541  7.9797472953796387 19.5117549896240234
  5.1677913665771484  7.5375709533691406 19.6145668029785156
  1.0233435630798340  0.1089897751808167 22.1045036315917969
  5.0668706893920898 10.3086690902709961 17.4067878723144531
  1.2233626842498779  5.4632611274719238 21.3554096221923828
  4.9979987144470215  5.0460424423217773 21.6663169860839844
  1.8690437078475952  3.4711651802062988 12.4447183609008789
  6.1720237731933594  3.9590251445770264 12.2672891616821289
  2.0578656196594238  8.9832162857055664 12.0920114517211914
  6.2118568420410156  9.1145505905151367 12.1501512527465820
  2.0216085910797119  6.4639039039611816 12.2104740142822266
  5.8927679061889648  6.5513348579406738 12.2330274581909180
  0.0724310800433159  3.9509394168853760 14.5542783737182617
  4.1857862472534180  3.9422953128814697 14.4671964645385742
  0.1734641045331955  9.0743837356567383 10.0545225143432617
  3.9199078083038330  8.6979742050170898  9.9658384323120117
  4.0088911056518555  1.2911980152130127 14.5198402404785156
  7.8352375030517578  1.4221510887145996 14.4476528167724609
  0.1164380684494972  6.2636532783508301 10.3204193115234375
  2.0881459712982178  3.8617784976959229 16.5714073181152344
  6.1667666435241699  3.8662497997283936 16.5592765808105469
  2.0791079998016357  9.0415945053100586 16.3720245361328125
  6.1700816154479980  9.0125570297241211 16.3929615020751953
  1.9797557592391968  1.2695283889770508 16.6442775726318359
  6.0110068321228027  1.2992881536483765 16.6238155364990234
  1.9751157760620117  6.4496531486511230 16.4410896301269531
  6.0162367820739746  6.4458122253417969 16.4535579681396484
  0.0515839941799641  3.8528141975402832 18.6981868743896484
  4.1100845336914062  3.8450796604156494 18.7032279968261719
  0.0727446600794792  9.0138940811157227 14.2286319732666016
  4.1117210388183594  9.0510473251342773 14.2313241958618164
  3.9866824150085449  1.2965461015701294 18.7861118316650391
  8.0689716339111328  1.2587294578552246 18.7823371887207031
  4.0119290351867676  6.4587197303771973 14.3131971359252930
  8.0747261047363281  6.4652891159057617 14.3087406158447266
  2.0394432544708252  3.8464558124542236 20.8004093170166016
  6.2922105789184570  3.7594134807586670 20.7775459289550781
  2.0017437934875488  1.3276013135910034 20.9224720001220703
  5.9689731597900391  1.1956772804260254 20.8648033142089844
  2.1919865608215332  6.8402051925659180 20.5702857971191406
  6.0110378265380859  6.3517317771911621 20.7436180114746094
  3.9452638626098633  4.0475950241088867 22.6898708343505859
  0.0509924069046974  9.0222043991088867 18.4988803863525391
  4.3462681770324707  8.8917989730834961 18.5701847076416016
  3.8857238292694092  1.2389867305755615 22.9601631164550781
  0.1423994004726410  1.6166850328445435 23.0512180328369141
  3.9882552623748779  6.3609318733215332 18.4599552154541016
  7.9977006912231445  6.3685317039489746 18.5439281463623047
