Mn O 
 1.0000000000000000
     9.4761619567871094    0.0000000000000000    3.1973540782928467
     6.2397031784057617    4.4938340187072754    3.1973540782928467
     0.0000000000000000    0.0000000000000000   35.1708946228027344
 Mn  O  
  24  20
Cartesian
  7.9436788558959961  2.2288768291473389 15.7207860946655273
  0.0375716462731361  0.0004825029463973 14.0313053131103516
  3.2458159923553467  0.0484759770333767 14.0719537734985352
 11.1879739761352539  2.3560805320739746 15.8233976364135742
  4.6912393569946289  2.2986428737640381 15.7162370681762695
  6.3701119422912598 -0.0767968371510506 14.1627473831176758
  7.8631267547607422  2.2537689208984375 18.9099159240722656
 -0.0040779490955174 -0.0019039475591853 17.2975845336914062
  3.1575005054473877  0.0016602919204161 17.3229389190673828
 11.0176744461059570  2.2285087108612061 18.9486865997314453
  4.6886577606201172  2.2594149112701416 18.9242706298828125
  6.3153553009033203  0.0142238382250071 17.3372592926025391
  7.8472189903259277  2.2275474071502686 22.1310176849365234
 -0.0257714428007603  0.0044522662647069 20.4772338867187500
  3.1447563171386719 -0.0132952779531479 20.5437431335449219
 11.0136747360229492  2.2484579086303711 22.1439132690429688
  4.6914591789245605  2.2569017410278320 22.1077289581298828
  6.3136940002441406 -0.0051319133490324 20.5440139770507812
  7.7899332046508789  2.1851413249969482 25.3657531738281250
 -0.1278160214424133 -0.1402926892042160 23.5474147796630859
  3.1494088172912598  0.0744085460901260 23.7712078094482422
 10.9860076904296875  2.2452816963195801 25.3964653015136719
  4.6307611465454102  2.2291157245635986 25.2360210418701172
  6.2013478279113770 -0.0425824485719204 23.8486099243164062
  7.8437690734863281  0.0268280543386936 15.7526693344116211
  9.4617738723754883  2.2494874000549316 17.2591381072998047
  3.1359131336212158  2.2323703765869141 14.1988973617553711
  4.7524046897888184  0.0361400432884693 15.7006797790527344
  6.3120703697204590  2.2928121089935303 17.2270832061767578
  7.9151244163513184  0.0127536356449127 18.8918495178222656
  1.5954506397247314 -0.0106715075671673 15.6750783920288086
  9.4478311538696289  2.2563543319702148 20.5011329650878906
  3.1303141117095947  2.2433485984802246 17.3243827819824219
  4.7412538528442383  0.0104500064626336 18.9209079742431641
  6.2768077850341797  2.2443420886993408 20.4912338256835938
  7.8990607261657715  0.0102613102644682 22.0843238830566406
  1.5791226625442505 -0.0034369740169495 18.9183292388916016
  9.4322605133056641  2.2484192848205566 23.7533016204833984
  3.1054496765136719  2.2413671016693115 20.5216121673583984
  4.7067503929138184 -0.0314040370285511 22.1492290496826172
  6.2899408340454102  2.2422492504119873 23.7101440429687500
  7.8920764923095703  0.0012050216319039 25.2436408996582031
  1.5765750408172607 -0.0111687052994967 22.1794242858886719
  3.1431152820587158  2.2590279579162598 23.6654281616210938
