Mn O 
 1.0000000000000000
     9.4761619567871094    0.0000000000000000    3.1973540782928467
     6.2397031784057617    4.4938340187072754    3.1973540782928467
     0.0000000000000000    0.0000000000000000   35.1708946228027344
 Mn  O  
  24  20
Cartesian
  7.8814606666564941  2.2472462654113770 15.7370281219482422
 -0.0005080312839709  0.0018669633427635 14.1034326553344727
  3.1503412723541260  0.0153516111895442 14.1069030761718750
 11.0296487808227539  2.2382447719573975 15.7552566528320312
  4.6739983558654785  2.2720234394073486 15.7150440216064453
  6.3369827270507812 -0.0482283197343349 14.1430759429931641
  7.8585438728332520  2.2466886043548584 18.9245204925537109
 -0.0002724117075559  0.0002521939750295 17.3188114166259766
  3.1545121669769287 -0.0003307911101729 17.3236389160156250
 11.0231876373291016  2.2414495944976807 18.9147453308105469
  4.6949076652526855  2.2475044727325439 18.9223632812500000
  6.3241438865661621 -0.0054110703058541 17.3202304840087891
  7.8616380691528320  2.2470664978027344 22.1107654571533203
 -0.0072662360034883  0.0048357248306274 20.5184860229492188
  3.1591386795043945  0.0004099724756088 20.5097980499267578
 11.0167675018310547  2.2467494010925293 22.1155529022216797
  4.6923084259033203  2.2517635822296143 22.1153087615966797
  6.3214426040649414 -0.0003833240480162 20.5126800537109375
  7.8652448654174805  2.2290565967559814 25.3251914978027344
 -0.0182978622615337  0.0109206903725863 23.6780490875244141
  3.1452860832214355  0.0026162203866988 23.6990356445312500
 11.0176048278808594  2.2469465732574463 25.3322219848632812
  4.6814699172973633  2.2838070392608643 25.2908477783203125
  6.3354334831237793 -0.0236926618963480 23.7242584228515625
  7.8746023178100586  0.0079007893800735 15.7217941284179688
  9.4308767318725586  2.2424693107604980 17.3126201629638672
  3.1140093803405762  2.2519695758819580 14.1314983367919922
  4.7435483932495117  0.0154379373416305 15.7091493606567383
  6.2806663513183594  2.2498612403869629 17.2985000610351562
  7.8976149559020996 -0.0001313997054240 18.9185047149658203
  1.5799771547317505 -0.0031601539812982 15.7192678451538086
  9.4381723403930664  2.2487430572509766 20.5140533447265625
  3.1260619163513184  2.2448027133941650 17.3150520324707031
  4.7387561798095703  0.0010936643229797 18.9170589447021484
  6.2780632972717285  2.2459647655487061 20.5161685943603516
  7.8917088508605957  0.0025834601838142 22.1175365447998047
  1.5790898799896240 -0.0012731031747535 18.9196357727050781
  9.4367380142211914  2.2504298686981201 23.7142887115478516
  3.1188747882843018  2.2467181682586670 20.5149536132812500
  4.7350516319274902 -0.0026754939462990 22.1316204071044922
  6.2749738693237305  2.2352883815765381 23.7227821350097656
  7.9038362503051758 -0.0040290816687047 25.3039474487304688
  1.5855895280838013  0.0029639531858265 22.1230068206787109
  3.1404361724853516  2.2404615879058838 23.7100124359130859
