Cu O 
 1.0000000000000000
     8.1217241287231445    0.0000000000000000    0.0000000000000000
     0.0000000000000000   10.3115978240966797   -4.7001461982727051
     0.0000000000000000    0.0000000000000000   38.2452316284179688
 Cu  O  
  44  43
Cartesian
  2.8352589607238770  2.3262927532196045 13.4942007064819336
  7.0224413871765137  2.7783474922180176 13.4047231674194336
  3.0529129505157471  7.7572369575500488 13.1985425949096680
  7.0797181129455566  7.7778658866882324 13.2151069641113281
  3.0564858913421631 10.2093925476074219 10.8968420028686523
  7.1148695945739746  0.0198928248137236 15.6183986663818359
  2.8124799728393555  4.8290376663208008 11.6629867553710938
  7.1889457702636719  5.2580265998840332 11.3444547653198242
  0.9950783252716064  2.5762972831726074 15.5314865112304688
  5.0715303421020508  2.6322035789489746 15.4874849319458008
  0.9915030598640442  7.6826977729797363 11.0783843994140625
  4.9842209815979004  7.7644872665405273 11.1430234909057617
  1.1421554088592529  0.1923223286867142 13.9363012313842773
  5.0050792694091797 10.0501365661621094  9.2408676147460938
  1.0089448690414429  5.0788483619689941 13.3394269943237305
  5.0633144378662109  5.1671414375305176 13.2787294387817383
  3.0306286811828613  2.6088449954986572 17.6647491455078125
  7.0811858177185059  2.6056592464447021 17.6593723297119141
  3.0350091457366943  7.7540864944458008 17.4464492797851562
  7.1286215782165527  7.7687664031982422 17.4609336853027344
  3.0029854774475098  0.0613626688718796 19.9199905395507812
  7.1047282218933105 10.3097000122070312 15.1470069885253906
  3.0722515583038330  5.1706218719482422 15.4608488082885742
  7.1025424003601074  5.2329392433166504 15.4973573684692383
  0.9513928294181824  2.5696840286254883 19.8221893310546875
  5.0825328826904297  2.6330087184906006 19.7842769622802734
  1.0186995267868042  7.7520189285278320 15.3502492904663086
  5.0722446441650391  7.7719001770019531 15.3004608154296875
  1.0330123901367188 10.3085184097290039 13.0595083236694336
  5.0636825561523438  0.0678818672895432 17.7967987060546875
  1.0006194114685059  5.1523818969726562 17.5704383850097656
  5.0547618865966797  5.2059025764465332 17.5808467864990234
  3.0620086193084717  2.7001399993896484 21.9438514709472656
  7.1104478836059570  2.4547665119171143 21.9183101654052734
  4.6712713241577148  0.4312114417552948 24.3199558258056641
  7.0387120246887207  0.0511532612144947 24.0357666015625000
  3.0343120098114014  5.2866654396057129 19.7409706115722656
  7.0734033584594727  5.1939349174499512 19.7320671081542969
  1.0847886800765991  7.7472472190856934 19.5090599060058594
  5.0994887351989746  7.8356347084045410 19.5797729492187500
  1.0163900852203369  0.0659297779202461 22.1030826568603516
  4.9599266052246094  0.0037801286671311 21.8797550201416016
  1.2271788120269775  5.4290614128112793 21.4736633300781250
  4.9546279907226562  5.1636548042297363 21.5972480773925781
  1.8408666849136353  3.4612271785736084 12.4556608200073242
  6.1751165390014648  3.9624226093292236 12.2743654251098633
  2.0650255680084229  8.9890804290771484 12.0723619461059570
  6.2105131149291992  9.1444664001464844 12.1609134674072266
  2.0175147056579590  6.4589819908142090 12.2106218338012695
  5.9087567329406738  6.5594301223754883 12.2438812255859375
  0.0500505305826664  3.9640049934387207 14.5832633972167969
  4.1685671806335449  3.9514985084533691 14.4517154693603516
  0.1699828058481216  9.0799446105957031 10.0653285980224609
  3.9475743770599365  8.7023601531982422  9.9626789093017578
  4.0326590538024902  1.2947499752044678 14.4936399459838867
  7.8473854064941406  1.4241830110549927 14.4451723098754883
  0.1034088730812073  6.2726664543151855 10.3187808990478516
  2.0895359516143799  3.8750538825988770 16.5650577545166016
  6.1104207038879395  3.9265596866607666 16.5769023895263672
  2.0547282695770264  9.0701217651367188 16.3723335266113281
  6.1698164939880371  9.0442609786987305 16.2985973358154297
  2.0065317153930664  1.2808116674423218 16.6339893341064453
  6.0078997611999512  1.3308116197586060 16.6106052398681641
  1.9761676788330078  6.4471149444580078 16.4548149108886719
  6.0154490470886230  6.5042510032653809 16.4638710021972656
  0.0156028065830469  3.8854591846466064 18.7093296051025391
  4.0709686279296875  3.9260072708129883 18.7038097381591797
  0.0945423915982246  9.0303363800048828 14.2023849487304688
  4.0813407897949219  9.0862035751342773 14.2088928222656250
  3.9681611061096191  1.3554029464721680 18.7783794403076172
  8.0725708007812500  1.2896317243576050 18.7351207733154297
  4.0095877647399902  6.4748692512512207 14.3093566894531250
  8.0627269744873047  6.4757232666015625 14.3140668869018555
  1.9807045459747314  3.8427128791809082 20.8162441253662109
  6.2808351516723633  3.8049120903015137 20.8477706909179688
  1.9447913169860840  1.3466935157775879 20.9782657623291016
  5.9489212036132812  1.2270873785018921 20.7586708068847656
  2.1444566249847412  6.8129067420959473 20.6652603149414062
  5.9335665702819824  6.4470100402832031 20.6323318481445312
  3.9016797542572021  4.1835584640502930 22.6494636535644531
  0.1489512026309967  9.0092153549194336 18.4739284515380859
  4.1531543731689453  8.9821977615356445 18.3368873596191406
  3.9801681041717529  1.3294795751571655 22.8715915679931641
  8.0286865234375000  1.3083226680755615 23.0438785552978516
  4.0374317169189453  6.5127601623535156 18.5731811523437500
  7.9978566169738770  6.4069638252258301 18.5366230010986328
  5.7911586761474609  9.4579248428344727 20.3868579864501953
