Cu O 
 1.0000000000000000
     8.1217241287231445    0.0000000000000000    0.0000000000000000
     0.0000000000000000   10.3115978240966797   -4.7001461982727051
     0.0000000000000000    0.0000000000000000   38.2452316284179688
 Cu  O  
  44  43
Cartesian
  3.0090572834014893  2.5823745727539062 13.4093132019042969
  7.0721621513366699  2.5829744338989258 13.4100866317749023
  3.0436625480651855  7.7277331352233887 13.1992979049682617
  7.0966777801513672  7.7336330413818359 13.1968698501586914
  3.0651571750640869 -0.0269654467701912 15.6381263732910156
  7.1306161880493164 -0.0266626998782158 15.6451597213745117
  3.0336639881134033  5.1457643508911133 11.2345438003540039
  7.1431140899658203  5.1929302215576172 11.1747856140136719
  1.0094901323318481  2.5793471336364746 15.5444841384887695
  5.0695543289184570  2.5797643661499023 15.5436677932739258
  0.9548261761665344  7.7051577568054199 11.0289182662963867
  5.0458774566650391  7.7386579513549805 11.0570440292358398
  1.0063898563385010 -0.0122685329988599 13.5858964920043945
  5.0688877105712891 -0.0102576687932014 13.5833549499511719
  1.0360989570617676  5.1269521713256836 13.2985906600952148
  5.0890879631042480  5.1301102638244629 13.3023309707641602
  3.0456190109252930  2.5746726989746094 17.6817951202392578
  7.1073050498962402  2.5751533508300781 17.6840553283691406
  3.0488593578338623  7.7258815765380859 17.4675865173339844
  7.1083717346191406  7.7243738174438477 17.4686717987060547
  3.0490360260009766 -0.0001292043161811 19.9192428588867188
  7.1030602455139160  0.0019068206893280 19.9219493865966797
  3.0478723049163818  5.1478548049926758 15.4447784423828125
  7.1084394454956055  5.1468529701232910 15.4447374343872070
  1.0162603855133057  2.5765631198883057 19.8148269653320312
  5.0865850448608398  2.5700192451477051 19.8177146911621094
  1.0145515203475952  7.7301054000854492 15.3319969177246094
  5.0749540328979492  7.7291917800903320 15.3296861648559570
  1.0109744071960449 -0.0062899715267122 17.7963714599609375
  5.0789880752563477 -0.0088126007467508 17.7933216094970703
  1.0135384798049927  5.1560921669006348 17.5697231292724609
  5.0750331878662109  5.1566705703735352 17.5697727203369141
  3.1078078746795654  2.5980310440063477 21.9871501922607422
  7.1345291137695312  2.5630035400390625 21.9619636535644531
  3.0656960010528564  0.0093237468972802 24.1304969787597656
  7.0530214309692383  0.0821650847792625 24.2040042877197266
  3.0236790180206299  5.1771397590637207 19.7170372009277344
  7.0930814743041992  5.1741147041320801 19.7128772735595703
  1.0516539812088013  7.7192459106445312 19.6071720123291016
  5.1075630187988281  7.7148876190185547 19.6031475067138672
  1.0017743110656738  0.0251518432050943 22.0688858032226562
  5.0483784675598145  0.0217095222324133 22.0669727325439453
  1.0249570608139038  5.1596183776855469 21.7839183807373047
  5.0399246215820312  5.1112165451049805 21.8404960632324219
  2.1041786670684814  3.8333501815795898 12.3387889862060547
  6.1705451011657715  3.8583357334136963 12.3232069015502930
  2.0871169567108154  9.0238304138183594 12.0867357254028320
  6.1662607192993164  9.0555229187011719 12.1071310043334961
  1.9690760374069214  6.4846568107604980 12.1882171630859375
  6.0019512176513672  6.4686622619628906 12.2028884887695312
  0.0791843757033348  3.9009714126586914 14.4567470550537109
  4.1402931213378906  3.9013898372650146 14.4559631347656250
  0.0761478245258331  9.0307998657226562  9.9868621826171875
  4.1318411827087402  8.9889116287231445  9.9860773086547852
  3.9891593456268311  1.3236995935440063 14.5309591293334961
  8.0466938018798828  1.3192951679229736 14.5283117294311523
  8.0673418045043945  6.4068913459777832 10.1596889495849609
  2.0863778591156006  3.8722493648529053 16.5659160614013672
  6.1476917266845703  3.8716666698455811 16.5661392211914062
  2.0831875801086426  9.0236501693725586 16.3384552001953125
  6.1466188430786133  9.0313234329223633 16.3406352996826172
  1.9786459207534790  1.2920250892639160 16.6757392883300781
  6.0363273620605469  1.2879694700241089 16.6756114959716797
  1.9743746519088745  6.4488034248352051 16.4504432678222656
  6.0372395515441895  6.4484891891479492 16.4485664367675781
  0.0518762953579426  3.8741931915283203 18.6899280548095703
  4.1132650375366211  3.8733210563659668 18.6912517547607422
  0.0567612685263157  9.0257349014282227 14.2156677246093750
  4.1151571273803711  9.0286903381347656 14.2143878936767578
  4.0047092437744141  1.2942054271697998 18.7979621887207031
  8.0680952072143555  1.2906039953231812 18.7985057830810547
  4.0102677345275879  6.4446053504943848 14.3232946395874023
  8.0696401596069336  6.4450988769531250 14.3231163024902344
  2.0916500091552734  3.8341131210327148 20.8232517242431641
  6.1796555519104004  3.8507921695709229 20.8092708587646484
  1.9726221561431885  1.2951226234436035 20.9284725189208984
  6.0150837898254395  1.2636816501617432 20.9069213867187500
  1.9574141502380371  6.4865865707397461 20.6720943450927734
  6.0118727684020996  6.4588632583618164 20.6895751953125000
  4.1135416030883789  3.9113306999206543 22.8478126525878906
  0.0616517625749111  9.0194873809814453 18.4888916015625000
  4.1310491561889648  9.0019283294677734 18.4843139648437500
  3.9805538654327393  1.2880058288574219 23.0193634033203125
  8.0736083984375000  1.3148339986801147 23.0044937133789062
  3.9852557182312012  6.4237494468688965 18.5604057312011719
  8.0429773330688477  6.4177498817443848 18.5579891204833984
  6.0871534347534180  1.1979248523712158 25.1206455230712891
