Mn O 
 1.0000000000000000
     9.4761619567871094    0.0000000000000000    3.1973540782928467
     6.2397031784057617    4.4938340187072754    3.1973540782928467
     0.0000000000000000    0.0000000000000000   35.1708946228027344
 Mn  O  
  24  22
Cartesian
  7.8970093727111816  2.1637525558471680 15.7311496734619141
  0.0485390610992908 -0.0097804702818394 14.0982465744018555
  3.2583925724029541  0.0544358342885971 14.1209592819213867
 11.1687326431274414  2.3720257282257080 15.9436626434326172
  4.8242306709289551  2.2782189846038818 15.6614151000976562
  6.4243392944335938  0.0042273048311472 14.2564344406127930
  7.8793330192565918  2.2464330196380615 18.9540519714355469
 -0.0053780125454068 -0.0183633789420128 17.3442611694335938
  3.1688165664672852  0.0030296531040221 17.3472537994384766
 11.0533123016357422  2.2295699119567871 19.0089244842529297
  4.6985416412353516  2.2428913116455078 18.9464416503906250
  6.3325581550598145 -0.0188857875764370 17.3836383819580078
  7.8303585052490234  2.2293055057525635 22.1733322143554688
 -0.0396031215786934 -0.0178343635052443 20.5432872772216797
  3.1155645847320557 -0.0131644168868661 20.5414829254150391
 10.9954071044921875  2.2362654209136963 22.1790084838867188
  4.6647100448608398  2.2225184440612793 22.1586360931396484
  6.3075284957885742 -0.0247075930237770 20.5545539855957031
  7.7216863632202148  2.1797823905944824 25.4340648651123047
 -0.2322704046964645  0.0975401476025581 23.6528148651123047
  3.0006201267242432 -0.0276220254600048 23.6581993103027344
 10.9141035079956055  2.2501802444458008 25.4307975769042969
  4.4376211166381836  2.3127498626708984 25.3386344909667969
  6.3003258705139160 -0.0403196215629578 23.7485370635986328
  7.8962717056274414 -0.0215176008641720 15.8316669464111328
  9.4719886779785156  2.2466051578521729 17.3101253509521484
  3.1479580402374268  2.2407236099243164 14.2461299896240234
  4.7504520416259766 -0.0003404977906030 15.7692012786865234
  6.3316564559936523  2.2693846225738525 17.3388271331787109
  7.9186954498291016 -0.0034312219358981 18.9646549224853516
  1.6010316610336304 -0.0164612289518118 15.7226934432983398
  9.4364070892333984  2.2382426261901855 20.5554504394531250
  3.1277432441711426  2.2255246639251709 17.3921527862548828
  4.7321143150329590 -0.0010332223027945 18.9810009002685547
  6.2606158256530762  2.2213363647460938 20.5676746368408203
  7.8560171127319336 -0.0185434911400080 22.1550159454345703
  1.5420970916748047 -0.0248690117150545 18.9574470520019531
  9.3846817016601562  2.2549786567687988 23.7588558197021484
  3.0842926502227783  2.2357223033905029 20.5710449218750000
  4.6799960136413574 -0.0434005036950111 22.2508983612060547
  6.1992688179016113  2.1666715145111084 23.8063030242919922
  7.8428449630737305 -0.0222037192434072 25.2719669342041016
  1.5088491439819336  0.0446803495287895 22.1556644439697266
  3.1033716201782227  2.1883366107940674 23.7395915985107422
  5.2276101112365723  1.7017819881439209 27.0197143554687500
  6.4379210472106934  2.6026513576507568 27.0401954650878906
