Mn O 
 1.0000000000000000
     9.4761619567871094    0.0000000000000000    3.1973540782928467
     6.2397031784057617    4.4938340187072754    3.1973540782928467
     0.0000000000000000    0.0000000000000000   35.1708946228027344
 Mn  O  
  24  22
Cartesian
  7.8630061149597168  2.2346706390380859 15.7202205657958984
 -0.0052004014141858 -0.0023622286971658 14.0978660583496094
  3.1680612564086914  0.0228470563888550 14.1077585220336914
 11.0438470840454102  2.2523519992828369 15.7458047866821289
  4.6899108886718750  2.2709422111511230 15.6964197158813477
  6.3320202827453613 -0.0245990231633186 14.1296482086181641
  7.8567438125610352  2.2464764118194580 18.9212951660156250
 -0.0005761818028986  0.0009020023862831 17.3181304931640625
  3.1586978435516357  0.0013282424770296 17.3195304870605469
 11.0275402069091797  2.2468414306640625 18.9130783081054688
  4.6964721679687500  2.2476630210876465 18.9173126220703125
  6.3252658843994141 -0.0032379871699959 17.3110961914062500
  7.8616337776184082  2.2472705841064453 22.1096706390380859
 -0.0106182880699635  0.0053626270964742 20.5167865753173828
  3.1631946563720703  0.0001339162554359 20.5091266632080078
 11.0180521011352539  2.2477669715881348 22.1124820709228516
  4.6911511421203613  2.2493991851806641 22.1198596954345703
  6.3203248977661133  0.0003097599837929 20.5128498077392578
  7.8761196136474609  2.2140078544616699 25.3244190216064453
 -0.0496139898896217 -0.0299277659505606 23.7460269927978516
  3.1686515808105469  0.0100157223641872 23.7166442871093750
 11.0146150588989258  2.2523460388183594 25.3367290496826172
  4.6631240844726562  2.2331650257110596 25.3606376647949219
  6.3132314682006836 -0.0225861892104149 23.7416763305664062
  7.8816475868225098  0.0049508120864630 15.7351799011230469
  9.4292860031127930  2.2471508979797363 17.3111782073974609
  3.1030819416046143  2.2431402206420898 14.1293487548828125
  4.7341990470886230  0.0051701110787690 15.7174968719482422
  6.2838902473449707  2.2542505264282227 17.3113899230957031
  7.8994889259338379  0.0005817268393002 18.9202995300292969
  1.5782139301300049 -0.0034070902038366 15.7164344787597656
  9.4363212585449219  2.2473087310791016 20.5157566070556641
  3.1217169761657715  2.2436904907226562 17.3209285736083984
  4.7368254661560059  0.0008040367974900 18.9199237823486328
  6.2788043022155762  2.2466216087341309 20.5177822113037109
  7.8935322761535645  0.0033654323779047 22.1152954101562500
  1.5800044536590576 -0.0008943628636189 18.9191780090332031
  9.4354133605957031  2.2503101825714111 23.7137203216552734
  3.1168756484985352  2.2456204891204834 20.5162143707275391
  4.7368788719177246 -0.0041959825903177 22.1199779510498047
  6.2838525772094727  2.2416143417358398 23.7306480407714844
  7.9219894409179688 -0.0030695581808686 25.3038253784179688
  1.5761646032333374 -0.0091839134693146 22.1313037872314453
  3.1376366615295410  2.2385611534118652 23.7055263519287109
  5.1504430770874023  1.5704264640808105 27.6334781646728516
  5.8044428825378418  2.5131840705871582 28.3061122894287109
