V  O 
 1.0000000000000000
     9.0099115371704102    0.0000000000000000    0.0000000000000000
     0.0000000000000000    4.5063199996948242   -0.0023940000683069
     0.0000000000000000    0.0000000000000000   36.4647789001464844
 V   O  
  16  30
Cartesian
  2.3135981559753418  2.2128794193267822 22.0166568756103516
  6.7625350952148438  2.2468433380126953 22.0926265716552734
  2.2547903060913086  2.2529213428497314 18.9958477020263672
  6.7562212944030762  2.2537271976470947 18.9868698120117188
 -0.1229395270347595  0.1174027025699615 23.4191436767578125
  4.5371904373168945 -0.0152740366756916 23.3827247619628906
  0.0045937937684357 -0.0087198643013835 20.4949073791503906
  4.4896903038024902  0.0078245038166642 20.5092887878417969
  2.2440481185913086  2.2466545104980469 15.9694032669067383
  6.7734036445617676  2.2605514526367188 15.9552125930786133
  2.3795044422149658  2.3695154190063477 13.0447473526000977
  6.7251181602478027  2.2377226352691650 13.0798206329345703
 -0.0014335671439767 -0.0002093185612466 17.4677200317382812
  4.5058007240295410  0.0005795577890240 17.4772491455078125
 -0.0602299086749554 -0.0419483855366707 14.4468774795532227
  4.5034809112548828 -0.0079535646364093 14.3738975524902344
  3.1619544029235840  1.3508807420730591 20.5032997131347656
  7.6620883941650391  1.3550926446914673 20.5143070220947266
  3.1978666782379150  1.2947142124176025 23.6033420562744141
  7.7569475173950195  1.2971160411834717 23.5859031677246094
  0.8751499652862549  0.8428687453269958 22.0964126586914062
  5.3980317115783691  0.8855631947517395 22.0589504241943359
  0.9041461944580078  0.8980986475944519 18.9941616058349609
  5.4140729904174805  0.8992873430252075 18.9913749694824219
  5.7561459541320801  3.2486515045166016 23.5711021423339844
  1.3295533657073975  3.1664540767669678 20.5048389434814453
  5.8545093536376953  3.1488935947418213 20.5153579711914062
  3.6231577396392822  3.6484689712524414 22.0748481750488281
  8.1323156356811523  3.5922710895538330 22.0513362884521484
  3.5997052192687988  3.6077132225036621 18.9894237518310547
  8.1028366088867188  3.6068322658538818 18.9913749694824219
  3.1261477470397949  1.3416290283203125 14.4036178588867188
  7.6395449638366699  1.3956019878387451 14.3861265182495117
  3.1600477695465088  1.3531596660614014 17.4699783325195312
  7.6624541282653809  1.3546699285507202 17.4713382720947266
  0.9236456155776978  0.9136875867843628 15.9596700668334961
  5.4079217910766602  0.8966997265815735 15.9481906890869141
  5.5058374404907227  0.9946195483207703 12.8937292098999023
  1.3479969501495361  3.1513514518737793 17.4694862365722656
  5.8484187126159668  3.1523981094360352 17.4722557067871094
  1.3754521608352661  3.0978686809539795 14.3721971511840820
  5.8625717163085938  3.1401147842407227 14.4038743972778320
  3.6007637977600098  3.6084823608398438 15.9463071823120117
  8.0998878479003906  3.6044399738311768 15.9572401046752930
  3.5059714317321777  3.5463528633117676 12.8720169067382812
  8.0650701522827148  3.5470793247222900 12.8570833206176758
