V  O 
 1.0000000000000000
     9.0099115371704102    0.0000000000000000    0.0000000000000000
     0.0000000000000000    4.5063199996948242   -0.0023940000683069
     0.0000000000000000    0.0000000000000000   36.4647789001464844
 V   O  
  16  30
Cartesian
  2.3902435302734375  2.0455241203308105 22.0942096710205078
  6.6748795509338379  2.3424508571624756 22.2320632934570312
  2.2465572357177734  2.2193295955657959 19.0004234313964844
  6.7817258834838867  2.2003281116485596 19.1214065551757812
 -0.3876073062419891  0.1606980711221695 23.4449996948242188
  4.4665002822875977  0.0443880632519722 23.2856254577636719
  0.0447006076574326 -0.0642900019884109 20.5092010498046875
  4.5155596733093262 -0.0356484614312649 20.3647689819335938
  2.2080345153808594  2.1875402927398682 15.9544191360473633
  6.7467656135559082  2.2162234783172607 16.0987319946289062
  2.6402914524078369  2.4100680351257324 13.0183982849121094
  6.7959818840026855  2.2941544055938721 13.1778955459594727
  0.0058683357201517 -0.0342409126460552 17.4632205963134766
  4.4807524681091309 -0.0534248575568199 17.3421325683593750
 -0.1372563689947128 -0.2098986655473709 14.3698701858520508
  4.5878667831420898  0.0867831632494926 14.2309999465942383
  3.1674768924713135  1.2933486700057983 20.4610729217529297
  7.6702270507812500  1.3244414329528809 20.6079063415527344
  3.2349109649658203  1.2810263633728027 23.7402000427246094
  7.6542062759399414  1.6002901792526245 23.7674770355224609
  0.8812184929847717  0.8032324314117432 22.1902198791503906
  5.3905663490295410  0.9923378825187683 21.9604587554931641
  0.9046079516410828  0.8687745928764343 19.0004634857177734
  5.4124660491943359  0.8947805166244507 18.9295883178710938
  5.8020176887512207  3.3905074596405029 23.6637115478515625
  1.3508523702621460  3.0988428592681885 20.5650920867919922
  5.8689608573913574  3.1740648746490479 20.5635910034179688
  3.5868680477142334  3.6066882610321045 21.9625701904296875
  8.0920381546020508  3.5430200099945068 22.0104980468750000
  3.5959422588348389  3.5729355812072754 18.9279365539550781
  8.1265678405761719  3.5763199329376221 18.9981155395507812
  3.1701281070709229  1.2870051860809326 14.4514560699462891
  7.6753058433532715  1.3510673046112061 14.4994297027587891
  3.1356236934661865  1.3224173784255981 17.4638576507568359
  7.6664423942565918  1.3193647861480713 17.5337905883789062
  0.9014941453933716  0.8440548777580261 15.8976325988769531
  5.3932852745056152  0.9195367097854614 15.8989753723144531
  5.4604063034057617  1.1337116956710815 12.7985534667968750
  1.3477644920349121  3.1213705539703369 17.4624176025390625
  5.8497920036315918  3.1474478244781494 17.5331268310546875
  1.3710883855819702  3.0532708168029785 14.2725458145141602
  5.8718519210815430  3.2432134151458740 14.5020570755004883
  3.5918843746185303  3.5757820606231689 15.8540468215942383
  8.0948457717895508  3.5450601577758789 16.0009231567382812
  3.6083266735076904  3.8492047786712646 12.6941642761230469
  8.0275564193725586  3.5304744243621826 12.7218942642211914
