Ni O 
 1.0000000000000000
     8.1986503601074219    0.0000000000000000    1.0289880037307739
     4.0591487884521484    9.4208240509033203    0.8346049785614014
     0.0000000000000000    0.0000000000000000   33.1766052246093750
 Ni  O  
  36  46
Cartesian
  5.6083798408508301  5.8778748512268066 21.6673774719238281
  1.4108699560165405  3.0264511108398438 21.9340343475341797
  9.8045358657836914  8.7944087982177734 21.4118194580078125
  7.6491599082946777  7.6519284248352051 22.7961750030517578
  3.6813499927520752  4.0530962944030762 20.4635715484619141
  7.6353225708007812  1.2397217750549316 21.7378940582275391
  3.3516342639923096  7.6518659591674805 22.2568073272705078
  7.7734670639038086  4.0530958175659180 20.9771633148193359
  3.6268799304962158  1.2397446632385254 21.2348079681396484
  5.9530305862426758  5.1110167503356934 18.9212951660156250
  1.7541338205337524  2.2321014404296875 19.1990661621093750
 10.1567726135253906  7.9825148582458496 18.6047115325927734
  7.8708000183105469  6.9181098937988281 20.1254768371582031
  4.0343828201293945  3.2723031044006348 17.6659069061279297
  8.0291061401367188  0.3998129069805145 18.9806957244873047
  3.7968747615814209  6.9181065559387207 19.6141700744628906
  8.1226377487182617  3.2723004817962646 18.1790084838867188
  3.9266674518585205  0.3998155295848846 18.4658126831054688
  6.3047647476196289  4.3098244667053223 16.1189212799072266
  2.1010224819183350  1.4383168220520020 16.4355068206787109
 10.5036621093750000  7.1887316703796387 15.8411493301391602
  8.2234201431274414  6.1485333442687988 17.3743019104003906
  4.3870058059692383  2.5027279853820801 14.9147253036499023
  4.2286829948425293  9.0210094451904297 16.0595073699951172
  4.1351532936096191  6.1485357284545898 16.8611984252929688
  8.4609146118164062  2.5027308464050293 15.4260272979736328
  8.3311376571655273  9.0210065841674805 16.5743923187255859
  6.6494193077087402  3.5429618358612061 13.3728532791137695
  2.4532582759857178  0.6263899207115173 13.6284055709838867
 10.8469238281250000  6.3943948745727539 13.1062202453613281
  8.5764474868774414  5.3677425384521484 14.5766286849975586
  4.6086788177490234  1.7688217163085938 12.2439718246459961
  4.6225380897521973  8.1811084747314453 13.3023290634155273
  4.4843282699584961  5.3677406311035156 14.0630359649658203
  8.9061784744262695  1.7688186168670654 12.7833385467529297
  8.6308641433715820  8.1810560226440430 13.8053760528564453
  9.8292999267578125  3.8322055339813232 21.2131366729736328
  5.6267809867858887  0.9103866815567017 21.5207710266113281
  9.5960397720336914  7.9598016738891602 23.0715618133544922
  5.7465853691101074  4.2521510124206543 20.5662059783935547
  1.5413435697555542  1.3482365608215332 20.8956527709960938
  7.4732508659362793  5.9714531898498535 21.9290370941162109
  3.2393541336059570  2.9803984165191650 22.1501884460449219
 11.6798782348632812  8.7671718597412109 21.6361560821533203
  7.7846150398254395  2.9804012775421143 22.7206401824951172
  7.9315733909606934  8.7671566009521484 21.1657276153564453
  3.7367088794708252  5.9714684486389160 21.4600811004638672
  5.8345460891723633  6.7251887321472168 19.8654422760009766
  1.9693619012832642  3.0195000171661377 17.4854030609130859
  5.9678587913513184  0.1381002366542816 18.8032321929931641
  9.9446163177490234  7.1784210205078125 20.2942142486572266
  6.0869655609130859  3.5193886756896973 17.8542900085449219
  1.8856775760650635  0.6433202028274536 18.1521186828613281
  7.8187956809997559  5.0994672775268555 19.1297321319580078
  3.6105537414550781  2.2158777713775635 19.4242382049560547
  3.8169488906860352  7.9848470687866211 17.8036632537841797
  8.0985765457153320  2.2158975601196289 19.9875240325927734
  8.2990484237670898  7.9848494529724121 18.3661975860595703
  4.0936446189880371  5.0994668006896973 18.6621952056884766
  6.1708364486694336  5.9014229774475098 17.1858730316162109
  2.3131840229034424  2.2423896789550781 14.7459697723388672
 10.3721189498901367  8.7775144577026367 16.8880882263183594
 10.2884349822998047  6.4013199806213379 17.5548038482666016
  6.4232535362243652  2.6956765651702881 15.1747417449951172
  6.2899413108825684  9.2827377319335938 16.2369537353515625
  8.1641426086425781  4.3213582038879395 16.3780059814453125
  3.9587559700012207  1.4359835386276245 16.6740055084228516
  4.1592049598693848  7.2049341201782227 15.0526809692382812
  8.4408416748046875  1.4359854459762573 17.2365379333496094
  8.6472578048706055  7.2049541473388672 15.6159725189208984
  4.4390110969543457  4.3213582038879395 15.9104709625244141
  6.5112104415893555  5.1686692237854004 14.4739933013916016
  2.6617510318756104  1.4610213041305542 11.9686727523803711
 10.7164592742919922  8.0725879669189453 14.1445074081420898
  2.4285030364990234  5.5886178016662598 13.8270273208618164
  6.6310143470764160  8.5104608535766602 13.5194587707519531
  8.5210313796997070  3.4493627548217773 13.5801048278808594
  4.3262271881103516  0.6536824107170105 13.8744831085205078
  4.4731597900390625  6.4404134750366211 12.3195209503173828
  0.5779159665107727  0.6536678075790405 13.4040546417236328
  9.0184745788574219  6.4404177665710449 12.8899803161621094
  4.7845954895019531  3.4493730068206787 13.1111612319946289
