Ti O 
 1.0000000000000000
     8.6923570632934570    0.0000000000000000   -5.0185351371765137
     0.0000000000000000    8.6459999084472656    0.0000000000000000
     0.0000000000000000    0.0000000000000000   40.1482772827148438
 Ti  O  
  54  50
Cartesian
  1.5151277780532837  1.4408799409866333 12.5589532852172852
  1.5637676715850830  4.3477287292480469 12.5326509475708008
  1.5637506246566772  7.1804270744323730 12.5326652526855469
  5.9119958877563477  1.4409410953521729 10.0104169845581055
  5.9231805801391602  4.3228888511657715  9.9996013641357422
  5.9233260154724121  7.2051720619201660  9.9997291564941406
  2.8946652412414551  1.4410011768341064 15.0505485534667969
  2.8887863159179688  4.3252477645874023 15.0560722351074219
  2.8887321949005127  7.2027950286865234 15.0558176040649414
  7.2365345954895020  1.4410268068313599 12.5529432296752930
  7.2382311820983887  4.3204259872436523 12.5530796051025391
  7.2380762100219727  7.2075629234313965 12.5530128479003906
 -0.0615850873291492  0.0008436766802333 15.0217304229736328
 -0.0615042485296726  2.8811249732971191 15.0216503143310547
 -0.0589420050382614  5.7640290260314941 15.0137557983398438
  4.3233618736267090  0.0153252948075533 12.5514154434204102
  4.3234581947326660  2.8666644096374512 12.5514926910400391
  4.2863092422485352  5.7641277313232422 12.5037403106689453
  1.4478424787521362  1.4409735202789307 17.5613231658935547
  1.4489135742187500  4.3236684799194336 17.5605525970458984
  1.4490784406661987  7.2043533325195312 17.5604438781738281
  5.7933945655822754  1.4409244060516357 15.0517597198486328
  5.7939882278442383  4.3216152191162109 15.0522394180297852
  5.7939281463623047  7.2064943313598633 15.0524082183837891
  2.8998622894287109  1.4423438310623169 20.0766353607177734
  2.8999736309051514  4.3230409622192383 20.0774440765380859
  2.8996806144714355  7.2035784721374512 20.0766029357910156
  7.2474751472473145  1.4402925968170166 17.5668926239013672
  7.2463078498840332  4.3229885101318359 17.5674209594726562
  7.2476549148559570  7.2057189941406250 17.5667915344238281
  0.0011059285607189  0.0003294990456197 20.0727806091308594
  0.0012030221987516  2.8816478252410889 20.0732078552246094
  0.0007025162922218  5.7640347480773926 20.0732612609863281
  4.3472995758056641 -0.0000523947601323 17.5647354125976562
  4.3475971221923828  2.8823938369750977 17.5643157958984375
  4.3479084968566895  5.7636446952819824 17.5646076202392578
  1.4439663887023926  1.4387156963348389 22.5907249450683594
  1.4517124891281128  4.3229527473449707 22.5884456634521484
  1.4441641569137573  7.2072877883911133 22.5909233093261719
  5.7863440513610840  1.4435181617736816 20.0754280090332031
  5.7855887413024902  4.3229231834411621 20.0769805908203125
  5.7862973213195801  7.2025408744812012 20.0755634307861328
  2.9667201042175293  1.4163899421691895 24.9999084472656250
  2.9195063114166260  4.3230824470520020 25.0287895202636719
  2.9666960239410400  7.2294898033142090 24.9999237060546875
  7.3401985168457031  1.4411280155181885 22.4910717010498047
  7.3251633644104004  4.3230071067810059 22.4954528808593750
  7.3402023315429688  7.2048649787902832 22.4909458160400391
  0.0068712211214006 -0.0000506655596837 25.1646366119384766
 -0.0012698664795607  2.8830027580261230 25.1628875732421875
 -0.0013540954096243  5.7630524635314941 25.1629295349121094
  4.3529787063598633 -0.0001028009428410 22.6565723419189453
  4.3303122520446777  2.8974435329437256 22.6005592346191406
  4.3303117752075195  5.7485570907592773 22.6006660461425781
  2.5466365814208984  5.7639651298522949 11.6177835464477539
  6.9410276412963867 -0.0015007726615295  9.1175937652587891
  6.9411201477050781  2.8834819793701172  9.1176452636718750
  6.9402303695678711  5.7639904022216797  9.1215267181396484
  0.0020274922717363  0.0001825170620577 17.0288486480712891
  0.0020500053651631  2.8818664550781250 17.0288181304931641
  0.0014198964927346  5.7639608383178711 17.0291156768798828
  4.3506321907043457  0.0001478466001572 14.5159921646118164
  4.3506302833557129  2.8819136619567871 14.5158691406250000
  4.3511281013488770  5.7638988494873047 14.5205698013305664
  1.6787294149398804 -0.0006771547487006 14.0561695098876953
  1.6786880493164062  2.8826398849487305 14.0562744140625000
  1.6925878524780273  5.7639999389648438 14.0732555389404297
  6.0271434783935547 -0.0023737594019622 11.5551090240478516
  6.0271210670471191  2.8842968940734863 11.5551404953002930
  6.0285673141479492  5.7640151977539062 11.5538358688354492
  2.6370639801025391  0.0000011239800415 16.5813922882080078
  2.6370203495025635  2.8821358680725098 16.5813903808593750
  2.6377921104431152  5.7638335227966309 16.5822811126708984
  6.9831242561340332  0.0006425707251765 14.0718660354614258
  6.9827666282653809  2.8813056945800781 14.0719232559204102
  6.9809784889221191  5.7640223503112793 14.0699787139892578
 -0.0032480729278177  0.0001845056394814 22.0449256896972656
 -0.0029020302463323  2.8818154335021973 22.0460243225097656
 -0.0029087234288454  5.7640299797058105 22.0459747314453125
  4.3440718650817871 -0.0000012104400184 19.5397739410400391
  4.3433122634887695  2.8826637268066406 19.5372657775878906
  4.3435268402099609  5.7633647918701172 19.5369834899902344
  1.7103894948959351 -0.0000212691593333 19.0869007110595703
  1.7106000185012817  2.8820497989654541 19.0869045257568359
  1.7108054161071777  5.7639660835266113 19.0871257781982422
  6.0563430786132812  0.0000443539793196 16.5767517089843750
  6.0564346313476562  2.8819243907928467 16.5770416259765625
  6.0563387870788574  5.7640371322631836 16.5772342681884766
  2.6389434337615967  0.0001455121819163 21.5920543670654297
  2.6427454948425293  2.8819990158081055 21.5947990417480469
  2.6426482200622559  5.7638902664184570 21.5947380065917969
  6.9839086532592773  0.0000718482624507 19.0862083435058594
  6.9845008850097656  2.8820784091949463 19.0858345031738281
  6.9844570159912109  5.7638382911682129 19.0858249664306641
 -0.0832104533910751  0.0000373507209588 27.0678195953369141
 -0.0794295445084572  2.8804454803466797 27.0689830780029297
 -0.0794263258576393  5.7655405998229980 27.0690765380859375
  4.2505822181701660  0.0000530864417669 24.6061420440673828
  1.6969108581542969  0.0000583604996791 24.1180095672607422
  1.7047222852706909  2.8812711238861084 24.1386184692382812
  1.7048071622848511  5.7647037506103516 24.1386451721191406
  6.0468444824218750  0.0000194535004994 21.6226844787597656
  6.0449891090393066  2.8796424865722656 21.6232624053955078
  6.0450196266174316  5.7663955688476562 21.6232719421386719
