Ti O 
 1.0000000000000000
     8.6923570632934570    0.0000000000000000   -5.0185351371765137
     0.0000000000000000    8.6459999084472656    0.0000000000000000
     0.0000000000000000    0.0000000000000000   40.1482772827148438
 Ti  O  
  54  50
Cartesian
  1.9896456003189087  1.4407558441162109 12.3836297988891602
  1.7918882369995117  4.2315788269042969 12.4841852188110352
  1.7913087606430054  7.2959527969360352 12.4848814010620117
  5.9692625999450684  1.4406818151473999 10.0737323760986328
  5.9996938705444336  4.3220677375793457 10.0489015579223633
  5.9972138404846191  7.2064089775085449 10.0509004592895508
  2.8838162422180176  1.4405974149703979 15.0638923645019531
  2.8793399333953857  4.3282127380371094 15.0620117187500000
  2.8808636665344238  7.2001428604125977 15.0622529983520508
  7.2154536247253418  1.4410769939422607 12.5745258331298828
  7.2164039611816406  4.3223218917846680 12.5674848556518555
  7.2169756889343262  7.2056469917297363 12.5690259933471680
 -0.0553046874701977 -0.0044223424047232 15.0095491409301758
 -0.0557142719626427  2.8862271308898926 15.0079879760742188
 -0.0477153025567532  5.7644205093383789 15.0114355087280273
  4.3037238121032715 -0.0006191400461830 12.6240749359130859
  4.3035464286804199  2.8825032711029053 12.6236467361450195
  4.2436161041259766  5.7640771865844727 12.4909009933471680
  1.4118021726608276  1.4399447441101074 17.5479450225830078
  1.4133613109588623  4.3233699798583984 17.5452404022216797
  1.4155102968215942  7.2055883407592773 17.5465564727783203
  5.7938961982727051  1.4409801959991455 15.0959348678588867
  5.7842574119567871  4.3290419578552246 15.0825490951538086
  5.7851018905639648  7.1989569664001465 15.0839138031005859
  2.8687491416931152  1.4348734617233276 20.0699977874755859
  2.8620204925537109  4.3229284286499023 20.0548171997070312
  2.8679904937744141  7.2110676765441895 20.0685424804687500
  7.2429265975952148  1.4405359029769897 17.6053390502929688
  7.2397575378417969  4.3239793777465820 17.6053504943847656
  7.2428636550903320  7.2044634819030762 17.6028347015380859
 -0.0154748288914561 -0.0005134859238751 20.0945072174072266
 -0.0158490352332592  2.8808636665344238 20.0963859558105469
 -0.0165224317461252  5.7655649185180664 20.0943279266357422
  4.3204736709594727 -0.0016411837423220 17.5692157745361328
  4.3190388679504395  2.8831727504730225 17.5675811767578125
  4.3208360671997070  5.7644405364990234 17.5681438446044922
  1.4341446161270142  1.4357173442840576 22.5960140228271484
  1.4347369670867920  4.3233327865600586 22.5910625457763672
  1.4346977472305298  7.2099113464355469 22.5945396423339844
  5.7628507614135742  1.4416161775588989 20.0872840881347656
  5.7562913894653320  4.3228659629821777 20.0845146179199219
  5.7617940902709961  7.2044515609741211 20.0859889984130859
  3.1228458881378174  1.5327482223510742 24.8265514373779297
  3.3089807033538818  4.3232092857360840 24.7056732177734375
  3.1219251155853271  7.1138191223144531 24.8266754150390625
  7.3358430862426758  1.4419450759887695 22.4001502990722656
  7.2987871170043945  4.3233470916748047 22.4141445159912109
  7.3328342437744141  7.2037696838378906 22.4012584686279297
  0.0144987646490335 -0.0004207143501844 25.1560363769531250
  0.0132977413013577  2.8779408931732178 25.1647510528564453
  0.0121951159089804  5.7684373855590820 25.1636142730712891
  4.3426074981689453 -0.0001036655376083 22.7000026702880859
  4.2577219009399414  2.8815994262695312 22.5817489624023438
  4.2574486732482910  5.7646312713623047 22.5812950134277344
  2.4206633567810059  5.7641940116882324 11.5495586395263672
  6.9127788543701172  0.0092046177014709  9.1030979156494141
  6.9121518135070801  2.8720281124114990  9.1005105972290039
  6.9176588058471680  5.7649526596069336  9.0915727615356445
 -0.0308638643473387  0.0006371237686835 16.9968833923339844
 -0.0321080908179283  2.8806397914886475 16.9944190979003906
 -0.0351119935512543  5.7647027969360352 17.0011959075927734
  4.3456163406372070 -0.0086779035627842 14.5805988311767578
  4.3449831008911133  2.8906710147857666 14.5802078247070312
  4.3354716300964355  5.7640705108642578 14.4921026229858398
  1.6621403694152832  0.0422294847667217 14.0110149383544922
  1.6616446971893311  2.8397829532623291 14.0103588104248047
  1.6602628231048584  5.7642984390258789 14.0470724105834961
  5.9910593032836914 -0.0063012046739459 11.5888805389404297
  5.9905829429626465  2.8886225223541260 11.5875568389892578
  5.9822697639465332  5.7639141082763672 11.5831098556518555
  2.6015055179595947 -0.0028021684847772 16.5771331787109375
  2.6005764007568359  2.8842394351959229 16.5755157470703125
  2.6070334911346436  5.7643699645996094 16.5776729583740234
  6.9677534103393555 -0.0016310679493472 14.0948066711425781
  6.9682621955871582  2.8837456703186035 14.0953912734985352
  6.9684462547302246  5.7637996673583984 14.0876359939575195
 -0.0146782621741295 -0.0003672820748761 22.0739154815673828
 -0.0160250551998615  2.8796374797821045 22.0806331634521484
 -0.0169716533273458  5.7667951583862305 22.0790405273437500
  4.3224854469299316  0.0002338743070140 19.5419769287109375
  4.3157258033752441  2.8800783157348633 19.5381908416748047
  4.3159842491149902  5.7656617164611816 19.5388526916503906
  1.6803444623947144  0.0003994452126790 19.0837841033935547
  1.6750162839889526  2.8762466907501221 19.0747756958007812
  1.6759526729583740  5.7693057060241699 19.0741138458251953
  6.0501594543457031 -0.0053527387790382 16.6135158538818359
  6.0491600036621094  2.8875777721405029 16.6140022277832031
  6.0440335273742676  5.7636194229125977 16.6048793792724609
  2.6556479930877686 -0.0000532593585376 21.6198501586914062
  2.5841393470764160  2.8732745647430420 21.5674839019775391
  2.5840952396392822  5.7726368904113770 21.5666904449462891
  6.9898324012756348 -0.0006468072533607 19.1317405700683594
  6.9971289634704590  2.8831946849822998 19.1325492858886719
  6.9956398010253906  5.7634477615356445 19.1302375793457031
 -0.0684689134359360 -0.0008221481111832 27.1022453308105469
 -0.0792107582092285  2.8920612335205078 27.1025810241699219
 -0.0811994820833206  5.7549152374267578 27.1007690429687500
  4.2464199066162109 -0.0001147324219346 24.7491149902343750
  1.7033799886703491 -0.0002256605948787 24.1591835021972656
  1.7358647584915161  2.9243309497833252 24.1763801574707031
  1.7356377840042114  5.7215952873229980 24.1756076812744141
  5.9983754158020020  0.0001882234209916 21.6481933593750000
  5.9986228942871094  2.8752558231353760 21.6386947631835938
  5.9977326393127441  5.7703719139099121 21.6375465393066406
