Cr O 
 1.0000000000000000
    10.2929630279541016    0.0000000000000000    3.6911458969116211
     8.9634304046630859    6.7347950935363770    2.3422520160675049
     0.0000000000000000    0.0000000000000000   43.0613212585449219
 Cr  O  
  40  80
Cartesian
  3.0526344776153564  1.6399697065353394 18.9461269378662109
  6.9215297698974609  2.9460926055908203 21.8313064575195312
  9.5408668518066406  0.2699624300003052 19.6834449768066406
 10.7747592926025391  4.2838773727416992 24.7679424285888672
 14.4996204376220703  5.5813102722167969 18.9809474945068359
  6.4946990013122559  1.8046480417251587 18.5708141326904297
 10.4343194961547852  3.1263487339019775 21.4611568450927734
  2.5661878585815430  0.3023730218410492 15.7803421020507812
 14.2537851333618164  4.4759740829467773 24.4025764465332031
 17.4613456726074219  5.7820286750793457 18.8862819671630859
  4.6273083686828613  1.1031930446624756 21.4057083129882812
  8.6925792694091797  1.9713178873062134 16.7441024780273438
  9.7157325744628906  6.5061187744140625 20.8589782714843750
 12.3466386795043945  3.6111140251159668 18.3968524932861328
 16.1679229736328125  5.1799812316894531 21.5755481719970703
 12.7034368515014648  4.9943475723266602 21.8894653320312500
 16.5360889434814453  6.3266592025756836 24.8527374267578125
  8.8955945968627930  3.7278072834014893 19.0170288085937500
 11.4347867965698242  0.9234740138053894 25.4518795013427734
  4.9471859931945801  2.2896826267242432 16.1424579620361328
  3.0885040760040283  1.5548422336578369 27.5191612243652344
  6.9097981452941895  3.1237003803253174 30.6979389190673828
  9.5406780242919922  0.2286887168884277 28.2357807159423828
 10.5638065338134766  4.7633924484252930 32.3506050109863281
 14.6290359497070312  5.6316318511962891 27.6890525817871094
  6.5529561042785645  1.7404628992080688 27.2052822113037109
 10.3607912063598633  3.0069439411163330 30.0776615142822266
  2.7203230857849121  0.4081437885761261 24.2420425415039062
 14.3092117309570312  4.4451351165771484 32.9521903991699219
  7.8215618133544922  5.8113193511962891 23.6429271697998047
  4.7567763328552246  1.1534839868545532 30.1137695312500000
  8.4815835952758789  2.4509263038635254 24.3268146514892578
  9.7155523300170898  6.4648895263671875 29.4112606048583984
 12.3348560333251953  3.7887039184570312 27.2634181976318359
 16.2037067413330078  5.0948162078857422 30.1485710144042969
 12.7616729736328125  4.9301643371582031 30.5238800048828125
 16.6902484893798828  6.4323949813842773 33.3143920898437500
  8.8220787048339844  3.6084568500518799 27.6335563659667969
  1.7950452566146851  0.9527058005332947 30.2084102630615234
  5.0025897026062012  2.2588367462158203 24.6921348571777344
  4.6759285926818848  2.1468293666839600 18.0054283142089844
  8.5687685012817383  3.3819730281829834 20.8589344024658203
  1.0186849832534790  0.6382620930671692 15.1461906433105469
 12.4001302719116211  4.7699270248413086 23.8287220001220703
 16.1224918365478516  5.8967981338500977 17.8676414489746094
  6.2217245101928711  1.7371706962585449 20.4623737335205078
 10.0612087249755859  3.0959661006927490 23.3661460876464844
  2.3710813522338867  0.3993918001651764 17.5546321868896484
 14.0010490417480469  4.3281049728393555 17.8295917510986328
 17.8484477996826172  5.7366199493408203 20.6410236358642578
  3.7105751037597656  2.5821805000305176 20.5151062011718750
  7.5681252479553223  3.9211912155151367 23.4151840209960938
 10.1734066009521484  1.2351227998733521 21.2695789337158203
 11.6593875885009766  5.3669905662536621 17.8442611694335938
 15.2962636947631836  6.6107850074768066 20.5836715698242188
 12.3383455276489258  3.0691134929656982 21.8751869201660156
  5.9043335914611816  4.4059906005859375 21.0684490203857422
  8.5425300598144531  1.7193610668182373 18.6488075256347656
  9.7543239593505859  5.7414236068725586 24.0032577514648438
  4.6277489662170410  0.3582533895969391 15.9310188293457031
  3.0088737010955811  0.6256349086761475 22.3239746093750000
  6.9119138717651367  1.9527679681777954 16.5687599182128906
  8.1046380996704102  6.0265140533447266 21.7428340911865234
 10.7542772293090820  3.3475987911224365 19.5089359283447266
 14.5583076477050781  4.6874256134033203 22.4725379943847656
  1.4752438068389893  0.9763802886009216 19.8710002899169922
  5.3369035720825195  2.3071501255035400 22.7922763824462891
 16.8640079498291016  6.4088864326477051 22.9384155273437500
  9.3313875198364258  3.5352268218994141 17.0965633392333984
 13.0765838623046875  4.9259891510009766 20.0708923339843750
  3.9908013343811035  0.1564392596483231 19.7984085083007812
  7.8396739959716797  1.4853672981262207 22.7383861541748047
  9.0875673294067383  5.5278968811035156 19.2700309753417969
 11.9850482940673828  2.8095791339874268 17.0810661315917969
 15.7685985565185547  4.2443552017211914 19.8420772552490234
 14.6080017089843750  6.3865504264831543 24.4970035552978516
  9.5193071365356445  0.4887534976005554 16.1135635375976562
 10.7664842605590820  5.0561280250549316 21.5590305328369141
  3.0747678279876709  2.2380099296569824 15.5920495986938477
  6.9216270446777344  3.7279803752899170 18.6337738037109375
  4.6981015205383301  2.0473897457122803 26.6221618652343750
  8.5021123886108398  3.3871653079986572 29.5857391357421875
 11.1517724990844727  0.7082956433296204 27.3519592285156250
 12.3444948196411133  4.7820277214050293 32.5258865356445312
 16.2475147247314453  6.1091675758361816 26.7707824707031250
  6.1798558235168457  1.8088182210922241 29.0238571166992188
  9.9250116348266602  3.1995410919189453 31.9980792999267578
  2.3924593925476074  0.3259129524230957 26.1563434600830078
 13.9194602966308594  4.4276509284973145 26.3024425506591797
 17.7811241149902344  5.7583971023559570 29.2237453460693359
  3.4878439903259277  2.4904654026031494 29.2526397705078125
  7.2714352607727051  3.9250826835632324 32.0135726928710938
 10.1688671112060547  1.2069000005722046 29.8246879577636719
 11.4167127609252930  5.2494258880615234 26.3563308715820312
 15.2655382156372070  6.5783863067626953 29.2963008880615234
 12.3347692489624023  3.0068318843841553 30.4608745574951172
 16.1816120147705078  4.4968008995056152 33.5026245117187500
  8.4899225234985352  1.6786543130874634 27.5356693267822266
  9.7370805740356445  6.2460303306579590 32.9811096191406250
  4.6483945846557617  0.3482685089111328 24.5977554321289062
  3.1339170932769775  0.8379376530647278 31.2271003723144531
  6.8562445640563965  1.9648674726486206 25.2660274505615234
 18.2377319335937500  6.0965280532836914 33.9484138488769531
 10.6876249313354492  3.3527960777282715 28.2357769012451172
 14.5804805755615234  4.5879878997802734 31.0892982482910156
  1.4079818725585938  0.9982118606567383 28.4537448883056641
  5.2553296089172363  2.4066858291625977 31.2651386260986328
 16.8852939605712891  6.3354063034057617 31.5399856567382812
  9.1951532363891602  3.6388254165649414 25.7285766601562500
 13.0346136093139648  4.9976463317871094 28.6323337554931641
  3.9601037502288818  0.1240574866533279 28.5110397338867188
  7.5969586372375488  1.3676980733871460 31.2504062652587891
  9.0830307006835938  5.4996652603149414 27.8251609802246094
 11.6881999969482422  2.8135929107666016 25.6795902252197266
 15.5457897186279297  4.1526198387145996 28.5795879364013672
 14.6286506652832031  6.3765482902526855 33.1636543273925781
  9.5020294189453125  0.9933655858039856 25.0915317535400391
 10.7138433456420898  5.0154809951782227 30.4459190368652344
 13.3520650863647461  2.3288381099700928 28.0263137817382812
  6.9180464744567871  3.6656923294067383 27.2195549011230469
