Cr O 
 1.0000000000000000
    10.2929630279541016    0.0000000000000000    3.6911458969116211
     8.9634304046630859    6.7347950935363770    2.3422520160675049
     0.0000000000000000    0.0000000000000000   43.0613212585449219
 Cr  O  
  40  80
Cartesian
  3.0658240318298340  1.6015033721923828 18.9058837890625000
  6.9234538078308105  2.9431929588317871 21.8417530059814453
  9.5620117187500000  0.2843080163002014 19.6548290252685547
 10.7724752426147461  4.2898015975952148 24.7704792022705078
 14.6272048950195312  5.6221084594726562 19.0475654602050781
  6.5623569488525391  1.7680423259735107 18.5712871551513672
 10.4087324142456055  3.1179256439208984 21.4821071624755859
  2.6083662509918213  0.3807402551174164 15.6874275207519531
 14.2601404190063477  4.4659214019775391 24.4115219116210938
  7.6819343566894531  5.9610219001770020 15.1239709854125977
  4.6307363510131836  1.0974662303924561 21.3949146270751953
  8.5174846649169922  2.3970830440521240 15.9234189987182617
  9.7406339645385742  6.4820456504821777 20.8035564422607422
 12.3262920379638672  3.8275499343872070 18.5692119598388672
 16.1723251342773438  5.1396970748901367 21.5785121917724609
 12.7003803253173828  4.9617733955383301 21.9246368408203125
 16.5497970581054688  6.3088188171386719 24.8581275939941406
  8.8531818389892578  3.6072845458984375 18.9728679656982422
 11.4376955032348633  0.9203519225120544 25.4444656372070312
  4.9571394920349121  2.2698121070861816 16.1676902770996094
  3.0841183662414551  1.5949667692184448 27.5162544250488281
  6.9314866065979004  2.9072914123535156 30.5254611968994141
  9.5158433914184570  0.2526480257511139 28.2912425994873047
 10.7391977310180664  4.3375792503356934 33.1708946228027344
 14.6257276535034180  5.6374068260192871 27.6997337341308594
  6.5561056137084961  1.7730913162231445 27.1698913574218750
 10.4032411575317383  3.1276423931121826 30.1217079162597656
  2.7066056728363037  0.4259646832942963 24.2364253997802734
 14.2994279861450195  4.4650735855102539 32.9268569946289062
  7.8186058998107910  5.8144187927246094 23.6500453948974609
  4.6290144920349121  1.1123495101928711 30.0465526580810547
  8.4840221405029297  2.4449775218963623 24.3241729736328125
  9.6944551467895508  6.4503116607666016 29.4399547576904297
 12.3330326080322266  3.7916123867034912 27.2528800964355469
 16.1906776428222656  5.1333498954772949 30.1887836456298828
 12.6939353942871094  4.9667258262634277 30.5233497619628906
 16.6481266021728516  6.3538656234741211 33.4071922302246094
  8.8476181030273438  3.6169147491455078 27.6126956939697266
  1.2817504405975342  0.7738291025161743 30.2794017791748047
  4.9961886405944824  2.2687346935272217 24.6830654144287109
  4.7007708549499512  2.0782094001770020 17.9779300689697266
  8.5471830368041992  3.4223890304565430 20.9201412200927734
 11.1611242294311523  0.6998387575149536 18.7755050659179688
 12.3970508575439453  4.7682595252990723 23.8478603363037109
 16.3150157928466797  6.0665683746337891 18.1562690734863281
  6.2120623588562012  1.7405172586441040 20.4483966827392578
 10.0625944137573242  3.0869889259338379 23.3830261230468750
  2.3733086585998535  0.3917063772678375 17.5119895935058594
 13.8967533111572266  4.4438157081604004 17.7484264373779297
 17.7982406616210938  5.7548947334289551 20.5901165008544922
  3.7074792385101318  2.5647742748260498 20.5013866424560547
  7.5589294433593750  3.9132082462310791 23.4312076568603516
 10.1491603851318359  1.2180103063583374 21.2670440673828125
 11.4618215560913086  5.2884807586669922 17.7524757385253906
 15.2631435394287109  6.6109328269958496 20.6822662353515625
 12.3397130966186523  3.0467190742492676 21.8512477874755859
  5.9003071784973145  4.3939313888549805 21.0856800079345703
  8.4843692779541016  1.7052165269851685 18.9239749908447266
  9.7524452209472656  5.7408604621887207 24.0150032043457031
  4.6406941413879395  0.3595839142799377 15.9449138641357422
  3.0077419281005859  0.6193801760673523 22.3203067779541016
  6.8796572685241699  1.9803837537765503 16.5543422698974609
  8.1216163635253906  6.0082802772521973 21.7317905426025391
 10.7104578018188477  3.3115096092224121 19.5647315979003906
 14.5618152618408203  4.6613874435424805 22.4955673217773438
  1.4926631450653076  0.9544643163681030 19.8549537658691406
  5.3417415618896484  2.3000779151916504 22.7846088409423828
 16.8924846649169922  6.3376770019531250 22.9589729309082031
  9.1728372573852539  3.6251709461212158 17.0293407440185547
 13.0481271743774414  4.9964404106140137 20.0409069061279297
  3.9947631359100342  0.1286131739616394 19.8044776916503906
  7.8463144302368164  1.4747499227523804 22.7334423065185547
  9.1048069000244141  5.5119376182556152 19.2179908752441406
 11.7085933685302734  2.8290774822235107 17.0751857757568359
 15.5676240921020508  4.1696462631225586 19.9544010162353516
 14.6162691116333008  6.3819665908813477 24.4932651519775391
  9.4888525009155273  0.9547825455665588 16.3708400726318359
 10.7653684616088867  5.0363245010375977 21.5643730163574219
 13.3740797042846680  2.3273737430572510 19.3520107269287109
  6.9109973907470703  3.6897714138031006 18.6347274780273438
  4.6944103240966797  2.0732941627502441 26.5992641448974609
  8.5460729598999023  3.4231772422790527 29.5296401977539062
 11.1345691680908203  0.7264075875282288 27.3631000518798828
 12.3766355514526367  4.7541718482971191 32.5406646728515625
 16.2484245300292969  6.1152772903442383 26.7747383117675781
  6.2081675529479980  1.7383906841278076 29.0537834167480469
 10.0835666656494141  3.1098871231079102 32.0654525756835938
  2.3638741970062256  0.3971395492553711 26.1356601715087891
 13.9146432876586914  4.4347519874572754 26.3102931976318359
 17.7636089324951172  5.7802877426147461 29.2399387359619141
  3.6886107921600342  2.5650651454925537 29.1404933929443359
  7.5478491783142090  3.9053823947906494 32.0192756652832031
 10.1517028808593750  1.2229199409484863 29.8767662048339844
 11.4101257324218750  5.2603445053100586 26.3612823486328125
 15.2617168426513672  6.6061148643493652 29.2903213500976562
 12.3454198837280273  3.0448648929595947 30.4600200653076172
  5.8819179534912109  4.4075250625610352 29.7429294586181641
  8.4910659790039062  1.6983805894851685 27.5303058624267578
  9.7674398422241211  5.7803225517272949 32.7241287231445312
  4.6401453018188477  0.3526321947574615 24.6014404296875000
  2.9409832954406738  0.6685887575149536 30.9385662078857422
  6.8592147827148438  1.9664493799209595 25.2470817565917969
  8.0952396392822266  6.0350956916809082 30.3192157745361328
 10.7090206146240234  3.3123455047607422 28.1748142242431641
 14.5557632446289062  4.6566486358642578 31.1167316436767578
  1.4581826925277710  0.9799560904502869 28.5047435760498047
  5.3589315414428711  2.2909092903137207 31.3468341827392578
 16.8831119537353516  6.3431096076965332 31.5824794769287109
  9.1938037872314453  3.6477303504943848 25.7118587493896484
 13.0445499420166016  4.9943046569824219 28.6464195251464844
  3.9931573867797852  0.1240634098649025 28.4123992919921875
  7.7946419715881348  1.4468262195587158 31.3424339294433594
  9.1071767807006836  5.5168471336364746 27.8275337219238281
 11.6974821090698242  2.8217113018035889 25.6635093688964844
 15.5489072799682617  4.1701855659484863 28.5934123992919922
 14.6155214309692383  6.3753991127014160 33.1498832702636719
  9.5039367675781250  0.9938038587570190 25.0796813964843750
 10.7719669342041016  5.0295562744140625 30.1706066131591797
 13.3561429977416992  2.3405642509460449 28.0089874267578125
  6.9165506362915039  3.6881170272827148 27.2433357238769531
