Cr O 
 1.0000000000000000
    10.2929630279541016    0.0000000000000000    3.6911458969116211
     8.9634304046630859    6.7347950935363770    2.3422520160675049
     0.0000000000000000    0.0000000000000000   43.0613212585449219
 Cr  O  
  40  86
Cartesian
  3.0236351490020752  1.6439182758331299 18.8707714080810547
  6.9013586044311523  2.9598937034606934 21.7423629760742188
  9.5187730789184570  0.2591933012008667 19.6093273162841797
 10.7411460876464844  4.3286948204040527 24.6806163787841797
 14.4773054122924805  5.5715265274047852 18.9078960418701172
  6.4697895050048828  1.7932056188583374 18.4942989349365234
 10.4129934310913086  3.1254935264587402 21.3719806671142578
  2.5421791076660156  0.2930026352405548 15.7063331604003906
 14.2214183807373047  4.4924945831298828 24.3262710571289062
 17.4448223114013672  5.7557125091552734 18.8108787536621094
  4.5960011482238770  1.1152735948562622 21.3278064727783203
  8.6703710556030273  1.9468176364898682 16.6671981811523438
  9.6881256103515625  6.5025577545166016 20.7907295227050781
 12.3259439468383789  3.5994088649749756 18.3155784606933594
 16.1458702087402344  5.1697292327880859 21.5018882751464844
 12.6782207489013672  4.9961872100830078 21.8103141784667969
 16.5058174133300781  6.3353438377380371 24.7768363952636719
  8.8719177246093750  3.7190289497375488 18.9309349060058594
 11.3978242874145508  0.9633698463439941 25.3774547576904297
  4.9258260726928711  2.2756915092468262 16.0678272247314453
  3.0829429626464844  1.6958742141723633 27.4125957489013672
  6.8232178688049316  2.9101400375366211 30.3367328643798828
  9.4885473251342773  0.3078109025955200 28.1836147308349609
 10.8427391052246094  4.1362915039062500 33.2063102722167969
 14.5766239166259766  5.6974592208862305 27.6183204650878906
  6.5325269699096680  1.8305207490921021 27.0414829254150391
 10.3623418807983398  3.2110321521759033 29.9717750549316406
  2.6690728664398193  0.4785990417003632 24.1708545684814453
 14.2501211166381836  4.5683794021606445 33.2250175476074219
 18.0669307708740234  5.8451747894287109 27.2811260223388672
  4.6173648834228516  1.2077043056488037 29.9461956024169922
  8.4585676193237305  2.4866371154785156 24.2271785736083984
  9.6337852478027344  6.5027904510498047 29.3287487030029297
 12.2962598800659180  3.8440921306610107 27.1697864532470703
 16.0934047698974609  5.1733679771423340 30.1150054931640625
 12.6731939315795898  5.0472888946533203 30.4613037109375000
 16.6233768463134766  6.4658856391906738 33.2840385437011719
  8.7984275817871094  3.6654653549194336 27.5288982391357422
 11.6303586959838867  1.2339271306991577 33.8638153076171875
  4.9571247100830078  2.3282794952392578 24.5767192840576172
  4.6509327888488770  2.1382536888122559 17.9305686950683594
  8.5465736389160156  3.3768610954284668 20.7720413208007812
  0.9948838949203491  0.6244596242904663 15.0714950561523438
 12.3673210144042969  4.7897415161132812 23.7490119934082031
 16.1026668548583984  5.8805532455444336 17.7973995208740234
  6.1951422691345215  1.7409350872039795 20.3852634429931641
 10.0360240936279297  3.1217706203460693 23.2831516265869141
  2.3443191051483154  0.3976833820343018 17.4809818267822266
 13.9816856384277344  4.3165597915649414 17.7557220458984375
 17.8257083892822266  5.7217030525207520 20.5660648345947266
  3.6809163093566895  2.5939755439758301 20.4398002624511719
  7.5388503074645996  3.9526791572570801 23.3280525207519531
 10.1500654220581055  1.2294778823852539 21.1935501098632812
 11.6370573043823242  5.3575625419616699 17.7711467742919922
 15.2705802917480469  6.5986695289611816 20.5122489929199219
 12.3142938613891602  3.0701127052307129 21.7953205108642578
  5.8713998794555664  4.4147782325744629 20.9985427856445312
  8.5185537338256836  1.7069792747497559 18.5718555450439453
  9.7094116210937500  5.7779541015625000 23.9455776214599609
  4.6073141098022461  0.3452450633049011 15.8604087829589844
  2.9709093570709229  0.6607001423835754 22.2482528686523438
  6.8901691436767578  1.9324327707290649 16.4917564392089844
  8.0713224411010742  6.0423302650451660 21.6806449890136719
 10.7341146469116211  3.3365941047668457 19.4214210510253906
 14.5320825576782227  4.6887288093566895 22.3987751007080078
  1.4461613893508911  0.9866886138916016 19.7931041717529297
  5.3160262107849121  2.3295097351074219 22.7060680389404297
 16.8411159515380859  6.4033675193786621 22.8610687255859375
  9.3050575256347656  3.5143871307373047 17.0124588012695312
 13.0571374893188477  4.9176588058471680 19.9926338195800781
  3.9602591991424561  0.1621401160955429 19.7233638763427734
  7.8162221908569336  1.5063780546188354 22.6514091491699219
  9.0612516403198242  5.5179643630981445 19.1976222991943359
 11.9633655548095703  2.8047344684600830 16.9958038330078125
 15.7456607818603516  4.2303743362426758 19.7705059051513672
 14.5786714553833008  6.4039006233215332 24.4109249114990234
  9.4997377395629883  0.4635369479656219 16.0399608612060547
 10.7426261901855469  5.0580062866210938 21.4733676910400391
  3.0536196231842041  2.2219941616058350 15.5084762573242188
  6.8985886573791504  3.7175669670104980 18.5538692474365234
  4.6696805953979492  2.1502091884613037 26.4939289093017578
  8.4798154830932617  3.4625506401062012 29.4752902984619141
 11.1037836074829102  0.7716630697250366 27.2799682617187500
 12.2258558273315430  4.8699140548706055 32.4980812072753906
 16.1997203826904297  6.1386642456054688 26.7006015777587891
  6.1809844970703125  1.7928888797760010 28.9585666656494141
  9.9012689590454102  3.4914379119873047 32.0258178710937500
  2.3004167079925537  0.4822309911251068 26.0797595977783203
 13.8688335418701172  4.4893555641174316 26.2281455993652344
 17.7075386047363281  5.8297033309936523 29.1570358276367188
  3.6529867649078369  2.6942725181579590 29.0483798980712891
  7.0564064979553223  4.3428840637207031 32.6441497802734375
 10.1332988739013672  1.2707521915435791 29.7905197143554688
 11.3746061325073242  5.3054232597351074 26.2798957824707031
 15.2186584472656250  6.6622228622436523 29.2020549774169922
 12.2854213714599609  3.1322090625762939 30.4294204711914062
 16.0936717987060547  4.5464706420898438 33.5329093933105469
  8.4556179046630859  1.7520397901535034 27.4366741180419922
 10.0086612701416016  5.1279964447021484 34.1026306152343750
  4.5985188484191895  0.4104783535003662 24.5222721099853516
  4.2359275817871094  0.5242596864700317 33.9207878112792969
  6.8224725723266602  2.0209357738494873 25.1464710235595703
 18.3120555877685547  6.1522445678710938 33.8750038146972656
 10.6661720275878906  3.3659217357635498 28.0774154663085938
 14.4814338684082031  4.7711730003356934 31.0930500030517578
 11.6779270172119141  1.0497546195983887 32.1670761108398438
  5.2279629707336426  2.3226282596588135 31.2129764556884766
 16.8497314453125000  6.4020133018493652 31.4721183776855469
  9.1602268218994141  3.6836156845092773 25.6265735626220703
 12.9998826980590820  5.0656409263610840 28.5568771362304688
  3.9118511676788330  0.2382033020257950 28.3615818023681641
  7.6267704963684082  1.4567670822143555 31.2970142364501953
  9.0611724853515625  5.5695900917053223 27.7395687103271484
 11.6657848358154297  2.8651874065399170 25.5832004547119141
 15.4837436676025391  4.2219657897949219 28.5178375244140625
 14.5932264328002930  6.4239363670349121 33.0199089050292969
  9.4648504257202148  1.0294584035873413 25.0072460174560547
 10.7048988342285156  5.1423563957214355 30.0909500122070312
 13.3237390518188477  2.4023804664611816 27.9164810180664062
  6.8645792007446289  3.7373800277709961 27.1585178375244141
 10.3893575668334961  0.4349292218685150 34.4083786010742188
 13.6551485061645508  4.5339250564575195 34.6979713439941406
  2.7449941635131836  0.7590672373771667 30.8738002777099609
  3.3192565441131592  1.1705769300460815 34.4313087463378906
 11.3507289886474609  2.9071233272552490 34.3363151550292969
  6.2137098312377930  4.3151569366455078 33.5412483215332031
