Cr O 
 1.0000000000000000
    10.2929630279541016    0.0000000000000000    3.6911458969116211
     8.9634304046630859    6.7347950935363770    2.3422520160675049
     0.0000000000000000    0.0000000000000000   43.0613212585449219
 Cr  O  
  40  86
Cartesian
  3.0681061744689941  1.6005043983459473 18.9058589935302734
  6.9241209030151367  2.9424989223480225 21.8421173095703125
  9.5553827285766602  0.2830508947372437 19.6545562744140625
 10.7728300094604492  4.2888269424438477 24.7699623107910156
 14.6326284408569336  5.6263036727905273 19.0479717254638672
  6.5623426437377930  1.7683249711990356 18.5695552825927734
 10.4088459014892578  3.1164822578430176 21.4806823730468750
  2.6178631782531738  0.3860688209533691 15.6905403137207031
 14.2610168457031250  4.4656348228454590 24.4111080169677734
  7.6799759864807129  5.9646677970886230 15.1273412704467773
  4.6311836242675781  1.0967707633972168 21.3954906463623047
  8.5192975997924805  2.3964014053344727 15.9311389923095703
  9.7406787872314453  6.4799261093139648 20.8048439025878906
 12.3222160339355469  3.8261160850524902 18.5692596435546875
 16.1739063262939453  5.1387400627136230 21.5788135528564453
 12.7004547119140625  4.9615311622619629 21.9224910736083984
 16.5487766265869141  6.3085165023803711 24.8564548492431641
  8.8539505004882812  3.6133286952972412 18.9687194824218750
 11.4376420974731445  0.9212322235107422 25.4452953338623047
  4.9601035118103027  2.2692725658416748 16.1695995330810547
  3.0767655372619629  1.5972754955291748 27.5235137939453125
  6.9036011695861816  2.8682832717895508 30.4785842895507812
  9.5131683349609375  0.2510125339031219 28.2868537902832031
 10.7837743759155273  4.2335209846496582 33.2313957214355469
 14.6291646957397461  5.6363101005554199 27.6999435424804688
  6.5579462051391602  1.7687391042709351 27.1769599914550781
 10.4082260131835938  3.1228435039520264 30.1514015197753906
  2.7058427333831787  0.4253131449222565 24.2360401153564453
 14.2534875869750977  4.4453268051147461 33.0752716064453125
  7.8184852600097656  5.8128013610839844 23.6528167724609375
  4.7877349853515625  1.1399599313735962 29.9471378326416016
  8.4839954376220703  2.4456400871276855 24.3254070281982422
  9.6982650756835938  6.4715261459350586 29.4437236785888672
 12.3333921432495117  3.7921185493469238 27.2515697479248047
 16.1899280548095703  5.1382112503051758 30.1829776763916016
 12.6925973892211914  4.9584832191467285 30.5338687896728516
 16.6118946075439453  6.3630657196044922 33.4826774597167969
  8.8479433059692383  3.6164371967315674 27.6102581024169922
 11.1942510604858398  0.9244671463966370 34.1278190612792969
  4.9970502853393555  2.2679119110107422 24.6826248168945312
  4.7004904747009277  2.0781960487365723 17.9782752990722656
  8.5470695495605469  3.4199180603027344 20.9204177856445312
 11.1614227294921875  0.7016663551330566 18.7741374969482422
 12.3974208831787109  4.7677440643310547 23.8486595153808594
 16.3082466125488281  6.0714464187622070 18.1618919372558594
  6.2108359336853027  1.7404577732086182 20.4505519866943359
 10.0634813308715820  3.0882453918457031 23.3827037811279297
  2.3730399608612061  0.3918059170246124 17.5118198394775391
 13.9034166336059570  4.4465026855468750 17.7481517791748047
 17.7983150482177734  5.7546505928039551 20.5919494628906250
  3.7090330123901367  2.5648448467254639 20.5016765594482422
  7.5598530769348145  3.9136502742767334 23.4304962158203125
 10.1497068405151367  1.2191909551620483 21.2660884857177734
 11.4559726715087891  5.2797651290893555 17.7469329833984375
 15.2635288238525391  6.6108021736145020 20.6833553314208984
 12.3392047882080078  3.0472192764282227 21.8507289886474609
  5.8992781639099121  4.3947253227233887 21.0858993530273438
  8.4831037521362305  1.7053654193878174 18.9229030609130859
  9.7523498535156250  5.7410001754760742 24.0154304504394531
  4.6381053924560547  0.3613715767860413 15.9438600540161133
  3.0084018707275391  0.6206527948379517 22.3202915191650391
  6.8771262168884277  1.9778445959091187 16.5552921295166016
  8.1199235916137695  6.0087552070617676 21.7338695526123047
 10.7044019699096680  3.3098378181457520 19.5732078552246094
 14.5612564086914062  4.6611928939819336 22.4964656829833984
  1.4921839237213135  0.9540859460830688 19.8572082519531250
  5.3414092063903809  2.2997205257415771 22.7857494354248047
 16.8907604217529297  6.3367056846618652 22.9624671936035156
  9.1739864349365234  3.6212778091430664 17.0348052978515625
 13.0485897064208984  4.9984397888183594 20.0445442199707031
  3.9949684143066406  0.1290939599275589 19.8052368164062500
  7.8460297584533691  1.4750601053237915 22.7333259582519531
  9.1051015853881836  5.5098543167114258 19.2199554443359375
 11.7035417556762695  2.8347485065460205 17.0758609771728516
 15.5668458938598633  4.1672091484069824 19.9558506011962891
 14.6165714263916016  6.3816485404968262 24.4924507141113281
  9.4850177764892578  0.9544290900230408 16.3753318786621094
 10.7662439346313477  5.0359001159667969 21.5644283294677734
 13.3736572265625000  2.3261647224426270 19.3501815795898438
  6.9114232063293457  3.6892650127410889 18.6344566345214844
  4.6931724548339844  2.0737981796264648 26.5970287322998047
  8.5471944808959961  3.4272115230560303 29.5374126434326172
 11.1391477584838867  0.7269948720932007 27.3601741790771484
 12.3850955963134766  4.7824311256408691 32.4939880371093750
 16.2485504150390625  6.1148910522460938 26.7744770050048828
  6.2180695533752441  1.7433716058731079 29.0476493835449219
 10.0887660980224609  3.1331129074096680 32.0074157714843750
  2.3624875545501709  0.3954977989196777 26.1338748931884766
 13.9130887985229492  4.4348883628845215 26.3110179901123047
 17.7689056396484375  5.7825694084167480 29.2360820770263672
  3.7009160518646240  2.5707752704620361 29.1017837524414062
  7.5439810752868652  3.9471375942230225 32.0501556396484375
 10.1505470275878906  1.2197899818420410 29.8744850158691406
 11.4119186401367188  5.2596216201782227 26.3622341156005859
 15.2628240585327148  6.6068377494812012 29.2874050140380859
 12.3446741104125977  3.0481064319610596 30.4567089080810547
  5.8854203224182129  4.4006118774414062 29.7126102447509766
  8.4907798767089844  1.7015218734741211 27.5300025939941406
  9.8247776031494141  5.7430787086486816 32.6776847839355469
  4.6395940780639648  0.3536564111709595 24.6028690338134766
  3.0012612342834473  0.3056716024875641 30.7516536712646484
  6.8570818901062012  1.9679558277130127 25.2500534057617188
  8.1271047592163086  6.0256528854370117 30.2905998229980469
 10.7091331481933594  3.3135612010955811 28.1751384735107422
 14.5574111938476562  4.6649870872497559 31.1117172241210938
  1.4877299070358276  0.9508551359176636 28.4780597686767578
  5.3874630928039551  2.2955260276794434 31.3521385192871094
 16.8911552429199219  6.3360400199890137 31.5737457275390625
  9.1931409835815430  3.6472470760345459 25.7130603790283203
 13.0431098937988281  4.9926428794860840 28.6488265991210938
  3.9870510101318359  0.1236659884452820 28.4188652038574219
  7.7964200973510742  1.4535909891128540 31.3148422241210938
  9.1056089401245117  5.5150828361511230 27.8296813964843750
 11.6973228454589844  2.8230652809143066 25.6643371582031250
 15.5462694168090820  4.1685748100280762 28.5909252166748047
 14.6253862380981445  6.3665084838867188 33.1088333129882812
  9.5043954849243164  0.9934215545654297 25.0787506103515625
 10.7687082290649414  5.0335135459899902 30.1750202178955078
 13.3547019958496094  2.3420503139495850 28.0082054138183594
  6.9152560234069824  3.6868796348571777 27.2437324523925781
  9.6214857101440430  1.0052012205123901 33.7217826843261719
 13.9212388992309570  4.4271326065063477 34.8528327941894531
 11.1480741500854492  0.7392622828483582 35.8712921142578125
  2.9866175651550293  1.9452348947525024 31.8663597106933594
 11.6293077468872070  2.8160483837127686 34.2294273376464844
 16.2519474029541016  6.0985960960388184 35.3966522216796875
