Fe O 
 1.0000000000000000
     8.6744670867919922    0.0000000000000000    0.0360689982771873
     8.7077960968017578    6.2038030624389648   -0.0183329991996288
     0.0000000000000000    0.0000000000000000   34.7441673278808594
 Fe  O  
  32  32
Cartesian
  2.2382643222808838  1.5052225589752197 11.9155492782592773
  6.7695069313049316  4.6353430747985840 11.9792270660400391
  0.0180490035563707 -0.0056921755895019 13.4357929229736328
  4.3668208122253418  3.1099600791931152 13.3447999954223633
 10.7088661193847656  4.6517739295959473 12.1257791519165039
  6.4944958686828613  1.4585944414138794 11.9633874893188477
  4.3500890731811523 -0.1277935653924942 13.3368864059448242
  8.6830673217773438  3.0537445545196533 13.4297428131103516
  2.2200226783752441  1.5567258596420288 15.0405607223510742
  6.5432419776916504  4.6474270820617676 15.0284824371337891
  0.0095617072656751  0.0523660518229008 16.6075954437255859
  4.3638172149658203  3.1377718448638916 16.5715751647949219
 10.8702697753906250  4.6529502868652344 15.0740928649902344
  6.4943537712097168  1.5426545143127441 15.0464143753051758
  4.3450903892517090  0.0569470040500164 16.5834503173828125
  8.6941328048706055  3.1455943584442139 16.6122608184814453
  2.1754689216613770  1.6216570138931274 18.1971931457519531
  6.5549826622009277  4.7267422676086426 18.1754417419433594
  0.0046224691905081  0.0333945117890835 19.7879371643066406
  4.3625674247741699  3.1412060260772705 19.7029647827148438
 10.8675298690795898  4.7111930847167969 18.2132625579833984
  6.5171818733215332  1.6161329746246338 18.2078933715820312
  4.3623251914978027  0.0382121987640858 19.7305564880371094
  8.7013816833496094  3.1382265090942383 19.7749671936035156
  2.1805040836334229  1.5811687707901001 21.4293308258056641
  6.5594334602355957  4.6844205856323242 21.4167976379394531
 -0.0472501628100872 -0.0668939352035522 23.0449352264404297
  4.3671112060546875  3.1519179344177246 22.7324409484863281
 10.8667535781860352  4.6854977607727051 21.4135932922363281
  6.5613908767700195  1.5950934886932373 21.3759384155273438
  4.3902125358581543  0.0711462050676346 22.7700176239013672
  8.8502435684204102  3.2491574287414551 23.0977439880371094
  4.3718552589416504  1.3880521059036255 11.9555473327636719
  8.7400093078613281  4.5904307365417480 11.9111499786376953
  2.1884200572967529  0.0090051302686334 13.4420185089111328
  6.4394102096557617  3.0862691402435303 13.3554239273071289
  8.6895856857299805  1.5048439502716064 12.0784950256347656
  6.5224313735961914 -0.0782485082745552 13.5401401519775391
 10.9491586685180664  3.0135767459869385 13.5022859573364258
  4.4232211112976074  1.5684019327163696 15.0129165649414062
  8.7802085876464844  4.6440396308898926 14.9261226654052734
  2.1018624305725098  0.0927410200238228 16.5718421936035156
  6.4626240730285645  3.2088115215301514 16.5408000946044922
 12.9716682434082031  4.7610454559326172 15.0357589721679688
  8.6127243041992188  1.6388365030288696 15.1413526535034180
  6.5898756980895996 -0.0232181660830975 16.6986732482910156
 10.9332447052001953  3.0948896408081055 16.6925449371337891
  4.4224648475646973  1.5504498481750488 18.1072196960449219
  8.7908487319946289  4.6583266258239746 18.1026554107666016
  2.0722618103027344  0.1921073347330093 19.7514286041259766
  6.4974427223205566  3.2880067825317383 19.6846408843994141
 12.9572868347167969  4.7558674812316895 18.2253360748291016
  8.6107139587402344  1.6600848436355591 18.2945823669433594
  6.6041860580444336  0.0640016570687294 19.8654613494873047
 10.8779458999633789  3.1300165653228760 19.8878822326660156
  4.2723770141601562  1.5681158304214478 21.1454372406005859
  8.5969858169555664  4.6272287368774414 21.2054157257080078
  2.4142553806304932  0.0770290866494179 22.6612796783447266
 13.1506643295288086  4.7055082321166992 21.2431602478027344
  8.8098382949829102  1.5770220756530762 21.7115077972412109
  6.3576998710632324 -0.0141356131061912 22.7205886840820312
 11.0794591903686523  3.0319831371307373 22.7547035217285156
  8.7461462020874023  4.7209906578063965 24.2176380157470703
  6.3397512435913086  3.1597609519958496 22.6256256103515625
