Fe O 
 1.0000000000000000
     8.6744670867919922    0.0000000000000000    0.0360689982771873
     8.7077960968017578    6.2038030624389648   -0.0183329991996288
     0.0000000000000000    0.0000000000000000   34.7441673278808594
 Fe  O  
  32  32
Cartesian
  2.1727070808410645  1.5488120317459106 11.8459911346435547
  6.5844454765319824  4.6439485549926758 11.8639173507690430
  0.0009416234097444 -0.0035019228234887 13.3796472549438477
  4.3509116172790527  3.0992040634155273 13.3900308609008789
 10.8209896087646484  4.6594562530517578 11.8956689834594727
  6.5216760635375977  1.5466456413269043 11.8863019943237305
  4.3395452499389648  0.0012706009438261 13.4101734161376953
  8.6856184005737305  3.1027624607086182 13.3842020034790039
  2.1741118431091309  1.5538614988327026 15.0016002655029297
  6.5322976112365723  4.6570086479187012 14.9927978515625000
 -0.0028815600089729 -0.0021453991066664 16.5801639556884766
  4.3487281799316406  3.0976290702819824 16.5768299102783203
 10.8639688491821289  4.6532087326049805 15.0025644302368164
  6.5183758735656738  1.5479937791824341 15.0134363174438477
  4.3379187583923340  0.0003253894683439 16.6002025604248047
  8.6936883926391602  3.1020863056182861 16.5930538177490234
  2.1796016693115234  1.5506755113601685 18.1744136810302734
  6.5363473892211914  4.6567125320434570 18.1572322845458984
  0.0007198232342489 -0.0013210377655923 19.7471332550048828
  4.3420271873474121  3.1028199195861816 19.7332897186279297
 10.8617286682128906  4.6513056755065918 18.1805171966552734
  6.5094957351684570  1.5435445308685303 18.1855354309082031
  4.3411612510681152  0.0011271690018475 19.7521972656250000
  8.7027196884155273  3.1071059703826904 19.7540607452392578
  2.1684286594390869  1.5543926954269409 21.3618755340576172
  6.5355691909790039  4.6744589805603027 21.3227710723876953
  0.0392162874341011  0.0116047095507383 22.8867206573486328
  4.2740693092346191  3.1018166542053223 22.8642940521240234
 10.8654413223266602  4.6539368629455566 21.3818855285644531
  6.5218186378479004  1.5431473255157471 21.3611335754394531
  4.3127460479736328  0.0039905961602926 22.8930263519287109
  8.7519235610961914  3.0992858409881592 22.8825778961181641
  4.2622375488281250  1.4875311851501465 11.8690710067749023
  8.6187124252319336  4.6099667549133301 11.8634157180786133
 10.8432359695434570  6.1433553695678711 13.3795299530029297
  6.4350423812866211  3.0478785037994385 13.3868951797485352
  8.7723360061645508  1.6008563041687012 11.9157171249389648
  6.5387582778930664  0.0508129298686981 13.4407110214233398
 10.9436569213867188  3.1517746448516846 13.4315586090087891
  4.3016166687011719  1.4956768751144409 15.0032291412353516
  8.6494626998901367  4.5960216522216797 14.9822683334350586
 10.8110198974609375  6.1627912521362305 16.5658206939697266
  6.4552721977233887  3.0622982978820801 16.5687923431396484
 13.0803289413452148  4.7077770233154297 15.0223188400268555
  8.7259426116943359  1.5991247892379761 15.0348577499389648
  6.5688591003417969  0.0498790740966797 16.6194343566894531
 10.9251260757446289  3.1471643447875977 16.6021137237548828
  4.3066596984863281  1.4990584850311279 18.1576538085937500
  8.6546840667724609  4.5976071357727051 18.1453971862792969
 10.7972249984741211  6.1436319351196289 19.7088508605957031
  6.4405164718627930  3.0384314060211182 19.7423305511474609
 13.0824174880981445  4.7189612388610840 18.1935768127441406
  8.7216482162475586  1.6182792186737061 18.1991710662841797
  6.5849847793579102  0.0479985140264034 19.7582492828369141
 10.9471378326416016  3.1532988548278809 19.7380046844482422
  4.2857003211975098  1.4786009788513184 21.3245906829833984
  8.6018285751342773  4.5880646705627441 21.2860794067382812
 10.8058624267578125  6.1565918922424316 22.8458595275878906
 13.1414957046508789  4.7061419486999512 21.3659133911132812
  8.7465143203735352  1.6176378726959229 21.3761425018310547
  6.5357961654663086  0.1585873812437057 22.8520221710205078
 10.9788675308227539  3.1540374755859375 22.8780879974365234
  9.0696296691894531  4.5802245140075684 24.7551631927490234
  7.1332864761352539  4.4856843948364258 23.6348419189453125
