Ni O 
 1.0000000000000000
     8.1986503601074219    0.0000000000000000    1.0289880037307739
     4.0591487884521484    9.4208240509033203    0.8346049785614014
     0.0000000000000000    0.0000000000000000   33.1766052246093750
 Ni  O  
  36  44
Cartesian
  5.6129951477050781  5.8690319061279297 21.6517601013183594
  1.4230993986129761  2.9388811588287354 21.8379116058349609
  9.8137340545654297  8.8443040847778320 21.3354721069335938
  7.8536334037780762  7.6454234123229980 22.6527957916259766
  3.6743178367614746  4.0688638687133789 20.5172100067138672
  7.5689611434936523  1.2896132469177246 21.7670497894287109
  3.1996781826019287  7.6475548744201660 22.0669956207275391
  7.7700314521789551  4.0703935623168945 21.0299453735351562
  3.6791927814483643  1.2865380048751831 21.2798366546630859
  5.9527468681335449  5.1073627471923828 18.9234924316406250
  1.7555795907974243  2.1955177783966064 19.1889705657958984
 10.1601924896240234  8.0136909484863281 18.5743141174316406
  7.8633284568786621  6.9481091499328613 20.0694255828857422
  4.0292320251464844  3.2885479927062988 17.6761436462402344
  8.0148620605468750  0.4296223521232605 18.9402923583984375
  3.8208532333374023  6.9486427307128906 19.5616035461425781
  8.1247358322143555  3.2888514995574951 18.1896381378173828
  3.9496095180511475  0.4293320178985596 18.4299774169921875
  6.2990570068359375  4.3474702835083008 16.1612224578857422
  2.1023559570312500  1.4282631874084473 16.4200897216796875
 10.5046110153198242  7.2259612083435059 15.8270578384399414
  8.2233972549438477  6.1597628593444824 17.3515396118164062
  4.3664488792419434  2.5237402915954590 14.9233608245849609
  4.2542757987976074  9.0250463485717773 16.0199966430664062
  4.1392226219177246  6.1589951515197754 16.8390121459960938
  8.4771080017089844  2.5233516693115234 15.4384565353393555
  8.3154392242431641  9.0261001586914062 16.5299797058105469
  6.6419696807861328  3.6117303371429443 13.4358186721801758
  2.4538969993591309  0.6113834977149963 13.6215658187866211
 10.8363313674926758  6.4587821960449219 13.1818666458129883
  8.5849857330322266  5.3256592750549316 14.5207157135009766
  5.3105797767639160  1.6784408092498779 12.5974826812744141
  4.7433309555053711  8.0906505584716797 13.2777099609375000
  4.4893970489501953  5.3255062103271484 14.0067977905273438
  8.1406269073486328  1.6790404319763184 12.9529647827148438
  8.5194997787475586  8.0916166305541992 13.7516937255859375
  9.8355283737182617  3.8283507823944092 21.1708412170410156
  5.5844607353210449  0.6378321051597595 21.8465614318847656
  5.7439999580383301  4.2296829223632812 20.5992469787597656
  1.5449802875518799  1.2828458547592163 20.8570423126220703
  7.5098056793212891  6.0125293731689453 22.0688571929931641
  3.2164387702941895  2.9692440032958984 22.1623020172119141
 11.6756896972656250  8.8144493103027344 21.7016448974609375
  7.8035588264465332  2.9709897041320801 22.7371215820312500
  7.9184594154357910  8.8123722076416016 21.2320709228515625
  3.6719007492065430  6.0120477676391602 21.5891895294189453
  5.8348617553710938  6.7370448112487793 19.8679485321044922
  1.9683755636215210  3.0165812969207764 17.4889488220214844
  5.9828586578369141  0.2067729532718658 18.6795997619628906
  9.9454259872436523  7.2395944595336914 20.2945041656494141
  6.0845913887023926  3.5376543998718262 17.8739032745361328
  1.8867344856262207  0.6342865824699402 18.1398048400878906
  7.8116717338562012  5.1074686050415039 19.1778450012207031
  3.6203885078430176  2.2012135982513428 19.4320888519287109
  3.8152744770050049  8.0038871765136719 17.8016433715820312
  8.0865278244018555  2.2024717330932617 19.9921035766601562
  8.3002519607543945  8.0040893554687500 18.3644676208496094
  4.0893206596374512  5.1073999404907227 18.7122592926025391
  6.1655316352844238  5.9233264923095703 17.2248573303222656
  2.3185610771179199  2.2031056880950928 14.6999425888061523
 10.3745288848876953  8.7954025268554688 16.8637809753417969
 10.2903900146484375  6.4221472740173340 17.5350875854492188
  6.4142932891845703  2.7286646366119385 15.2429304122924805
  6.2808899879455566  9.2441291809082031 16.3102016448974609
  8.1650495529174805  4.3420987129211426 16.3665733337402344
  3.9574723243713379  1.4472862482070923 16.6431808471679688
  4.1643652915954590  7.2015705108642578 15.0358486175537109
  8.4490156173706055  1.4470949172973633 17.2071628570556641
  8.6458826065063477  7.2028360366821289 15.5987958908081055
  4.4391393661499023  4.3415427207946777 15.8992376327514648
  6.5053763389587402  5.2456979751586914 14.5108699798583984
 10.7165813446044922  8.1369514465332031 14.1376380920410156
  2.4242339134216309  5.5875434875488281 13.8575181961059570
  6.6597876548767090  8.6241111755371094 13.2893333435058594
  8.5667362213134766  3.4009296894073486 13.5137939453125000
  4.3617725372314453  0.5573537349700928 13.7976646423339844
  4.4556794166564941  6.4267058372497559 12.3014144897460938
  0.5610293745994568  0.5568206310272217 13.3201179504394531
  9.0381689071655273  6.4271039962768555 12.8764505386352539
  4.7570519447326660  3.3999471664428711 13.0354003906250000
