Zn O 
 1.0000000000000000
     9.9938201904296875    0.0000000000000000    0.0000000000000000
     9.9938201904296875    7.4407730102539062    1.0092240571975708
     0.0000000000000000    0.0000000000000000   30.3796920776367188
 Zn  O  
  24  42
Cartesian
  8.7864303588867188  4.4571180343627930 14.3431472778320312
  7.5434970855712891 -0.0975932553410530 10.6601152420043945
  8.7590818405151367  2.1513180732727051 12.2686748504638672
  6.1444425582885742  4.3773589134216309 12.2735271453857422
 16.2884788513183594  6.9633941650390625 14.2309169769287109
  6.3628993034362793  2.0372934341430664 15.2038097381591797
 11.4445295333862305  6.5359654426574707 14.5888805389404297
  0.5758168101310730  0.2015456110239029 11.0241765975952148
 11.1971006393432617  4.0794782638549805 12.6181468963623047
 13.7772865295410156  4.1350078582763672 15.3024959564208984
 13.8071432113647461  6.2438359260559082 12.3207902908325195
  3.7674305438995361  1.6809706687927246 13.3105688095092773
  8.8079938888549805  4.8627972602844238 19.5265216827392578
 18.7750396728515625  6.9675397872924805 16.5495109558105469
  8.7645206451416016  1.9853166341781616 17.5220928192138672
  6.4448623657226562  4.5661044120788574 17.2588005065917969
 16.1945323944091797  7.0190114974975586 19.2286567687988281
  5.5761194229125977  3.4582402706146240 19.8233013153076172
 11.1439819335937500  6.7235450744628906 19.5656108856201172
 11.3592004776000977  1.6267862319946289 15.6331062316894531
 11.2929792404174805  4.1367421150207520 17.6172847747802734
 12.5357856750488281  3.7574238777160645 20.1751842498779297
 13.7857427597045898  6.6504249572753906 17.4995536804199219
  3.7625532150268555  1.5081566572189331 18.5773277282714844
  8.2238054275512695  0.0201994664967060 12.7725601196289062
  8.3315048217773438  2.4219484329223633 14.6398248672485352
  6.6815338134765625  4.8850712776184082 14.2122678756713867
  6.6464014053344727  2.4768037796020508 12.0443162918090820
 11.7309799194335938  3.7053270339965820 15.6280889511108398
 11.8185110092163086  6.2895874977111816 12.4506387710571289
  1.7836643457412720  1.1793779134750366 13.5176925659179688
 13.4428596496582031  6.2043948173522949 15.1710081100463867
 13.2277736663818359  3.6494674682617188 13.0140972137451172
 10.9168138504028320  4.5133671760559082 14.6615486145019531
 11.0177879333496094  1.7938071489334106 12.3637456893920898
 14.1048192977905273  4.3203678131103516 11.9907064437866211
 14.2306680679321289  7.0206537246704102 14.1711330413818359
  4.2165703773498535  2.0409114360809326 15.2813844680786133
  9.1691627502441406  6.5609359741210938 14.5280036926269531
  9.0002374649047852  1.0187517404556274 10.3880147933959961
  9.2547101974487305  4.0636181831359863 12.4098615646362305
  5.8929548263549805  4.1012916564941406 15.2193841934204102
 15.9657249450683594  6.3571014404296875 11.9213705062866211
  5.8304247856140137  1.7146522998809814 13.0601892471313477
  8.4447345733642578  4.8964591026306152 16.6780662536621094
  8.2326049804687500  0.0165553484112024 17.8141880035400391
  6.8192081451416016  4.8169646263122559 19.3970966339111328
 16.7280673980712891  7.3990888595581055 16.2190475463867188
  6.7785258293151855  2.4840238094329834 17.3234424591064453
 11.6817684173583984  6.2141785621643066 17.6277275085449219
  1.6508984565734863  1.1836785078048706 18.7877407073974609
  3.3361153602600098  1.2421382665634155 16.1958656311035156
 13.2239723205566406  3.6414098739624023 18.0668735504150391
 10.9679975509643555  4.7462444305419922 19.9224052429199219
 10.8915100097656250  7.0012607574462891 16.6247959136962891
 10.8283720016479492  1.9499881267547607 17.7759780883789062
 14.1704626083374023  4.5410118103027344 17.3217945098876953
 14.2514047622680664  7.0365004539489746 19.4347019195556641
  3.9984717369079590  2.6371140480041504 20.4460506439208984
  9.1112594604492188  6.7870893478393555 19.8464660644531250
  9.2135133743286133  1.6230592727661133 15.5536603927612305
  9.2323570251464844  4.0786547660827637 17.6779079437255859
 15.9147586822509766  6.5905961990356445 17.1852645874023438
  6.0251560211181641  1.8685897588729858 18.4822692871093750
 14.8775396347045898  3.9000744819641113 23.4675903320312500
  5.9149818420410156  3.6355853080749512 22.8444690704345703
