Zn O 
 1.0000000000000000
     9.9938201904296875    0.0000000000000000    0.0000000000000000
     9.9938201904296875    7.4407730102539062    1.0092240571975708
     0.0000000000000000    0.0000000000000000   30.3796920776367188
 Zn  O  
  24  42
Cartesian
  8.7192182540893555  4.4972257614135742 14.6956443786621094
 18.7130374908447266  6.9774808883666992 11.6565341949462891
  8.7192182540893555  2.0169630050659180 12.6714916229248047
  6.2715120315551758  4.5431947708129883 12.2015390396118164
 16.2653312683105469  7.0234570503234863 14.2256917953491211
  6.2715120315551758  2.0629394054412842 15.2406501770019531
 11.2684221267700195  6.6179647445678711 14.6286973953247070
 11.2684221267700195  1.6574470996856689 10.5803632736206055
 11.2684221267700195  4.1377024650573730 12.6045446395874023
 13.7161283493041992  4.1836786270141602 15.1737031936645508
 13.7161283493041992  6.6639337539672852 12.1345920562744141
  3.7223081588745117  1.7034236192703247 13.1495208740234375
  8.7192182540893555  4.4972257614135742 19.7589359283447266
 18.7130374908447266  6.9774808883666992 16.7198257446289062
  8.7192182540893555  2.0169630050659180 17.7347831726074219
  6.2715120315551758  4.5431947708129883 17.2648315429687500
 16.2653312683105469  7.0234570503234863 19.2889842987060547
  6.2715120315551758  2.0629394054412842 20.3039417266845703
 11.2684221267700195  6.6179647445678711 19.6919898986816406
 11.2684221267700195  1.6574470996856689 15.6436548233032227
 11.2684221267700195  4.1377024650573730 17.6678371429443359
 13.7161283493041992  4.1836786270141602 20.2369956970214844
 13.7161283493041992  6.6639337539672852 17.1978855133056641
  3.7223081588745117  1.7034236192703247 18.2128124237060547
 18.3078479766845703  7.3905849456787109 13.6876096725463867
  8.3140287399291992  2.4300670623779297 14.7025365829467773
  6.6767010688781738  4.9508152008056641 14.2281045913696289
  6.6767010688781738  2.4705598354339600 12.2039527893066406
 11.6736116409301758  3.7300817966461182 15.6412420272827148
 11.6736116409301758  6.2103443145751953 12.6021327972412109
  1.6797912120819092  1.2498266696929932 13.6170902252197266
 13.3109388351440430  6.2508373260498047 15.1668100357055664
 13.3109388351440430  3.7705745697021484 13.1426572799682617
 10.8407058715820312  4.5164971351623535 14.6770534515380859
 10.8407058715820312  2.0362420082092285 12.6529016494750977
 14.1438436508178711  4.5575480461120605 12.1789388656616211
 14.1438436508178711  7.0378031730651855 14.2030906677246094
  4.1500239372253418  2.0772926807403564 15.2180500030517578
  9.1469335556030273  6.6036114692687988 14.6513280868530273
  9.1469335556030273  1.6430938243865967 10.6029930114746094
  9.1469335556030273  4.1233563423156738 12.6271457672119141
  5.8437962532043457  4.1643996238708496 15.1922931671142578
 15.8376159667968750  6.6446623802185059 12.1531839370727539
  5.8437962532043457  1.6841446161270142 13.1681413650512695
  8.3140287399291992  4.9103221893310547 16.7267189025878906
 18.3078479766845703  7.3905849456787109 18.7508716583251953
  6.6767010688781738  4.9508152008056641 19.2913970947265625
 16.6705207824707031  7.4310774803161621 16.2522869110107422
  6.6767010688781738  2.4705598354339600 17.2672443389892578
 11.6736116409301758  6.2103443145751953 17.6654243469238281
  1.6797912120819092  1.2498266696929932 18.6803531646728516
  3.3171186447143555  1.2903193235397339 16.1817684173583984
 13.3109388351440430  3.7705745697021484 18.2059192657470703
 10.8407058715820312  4.5164971351623535 19.7403450012207031
 10.8407058715820312  6.9967598915100098 16.7012367248535156
 10.8407058715820312  2.0362420082092285 17.7161941528320312
 14.1438436508178711  4.5575480461120605 17.2422008514404297
 14.1438436508178711  7.0378031730651855 19.2663822174072266
  4.1500239372253418  2.0772926807403564 20.2813110351562500
  9.1469335556030273  6.6036114692687988 19.7146205902099609
  9.1469335556030273  1.6430938243865967 15.6662549972534180
  9.1469335556030273  4.1233563423156738 17.6904373168945312
 15.8376159667968750  6.6446623802185059 17.2164764404296875
  5.8437962532043457  1.6841446161270142 18.2314033508300781
 14.0484027862548828  3.3722848892211914 22.3818149566650391
  5.3469834327697754  2.2971153259277344 22.4157409667968750
