C  H 
 1.0000000000000000
    15.0000000000000000    0.0000000000000000    0.0000000000000000
     0.0000000000000000   15.5000000000000000    0.0000000000000000
     0.0000000000000000    0.0000000000000000   16.0000000000000000
 C   H  
   3   8
Direct
  0.5000000000000000  0.5000000000000000  0.5260976250000000
  0.5000000000000000  0.5817327096774193  0.4731037500000000
  0.5000000000000000  0.4182672903225806  0.4731037500000000
  0.4415401333333334  0.5000000000000000  0.5671599375000000
  0.5584598666666667  0.5000000000000000  0.5671599375000000
  0.5000000000000000  0.6397516129032258  0.5119945000000000
  0.5000000000000000  0.3602483870967742  0.5119945000000000
  0.5589079333333333  0.5841441290322580  0.4328400625000000
  0.4410920666666666  0.5841441290322580  0.4328400625000000
  0.4410920666666666  0.4158558709677419  0.4328400625000000
  0.5589079333333333  0.4158558709677419  0.4328400625000000
