H  Ir O 
 1.0000000000000000
     9.0898780822753906    0.0000000000000000   -4.5449390411376953
     9.0898780822753906    6.3790140151977539    0.0000000000000000
     0.0000000000000000    0.0000000000000000   40.9044494628906250
 H   Ir  O  
   1  20  43
Cartesian
 10.5049076080322266  4.7358098030090332 24.3206272125244141
  6.7756752967834473  1.5752723217010498 15.5310811996459961
 11.4079055786132812  4.7756004333496094 15.5832843780517578
  2.3736889362335205  1.5284253358840942 15.6531715393066406
  6.8656578063964844  4.6986913681030273 15.5805864334106445
 13.6188154220581055  3.1876850128173828 13.2793331146240234
 18.1077003479003906  6.3542575836181641 13.1862573623657227
  9.0607957839965820  3.1407778263092041 13.4737148284912109
  4.4787316322326660  0.0706153661012650 13.2602214813232422
  6.8734617233276367  1.5486005544662476 20.1010360717773438
 11.3507099151611328  4.7282233238220215 20.0392589569091797
  2.2829236984252930  1.5646179914474487 20.0874843597412109
  6.8240714073181152  4.7482819557189941 20.0901470184326172
  4.6358094215393066  3.1469824314117432 22.4492149353027344
  9.1151762008666992  6.3409619331359863 22.3567123413085938
  9.0799999237060547  3.1576905250549316 17.7842597961425781
 13.6663732528686523  6.3526544570922852 17.8470916748046875
 11.2840909957885742  1.5996367931365967 20.0160007476806641
 15.8708219528198242  4.8044266700744629 20.0563983917236328
  9.2070999145507812  3.1394987106323242 22.2891445159912109
 13.6755781173706055  6.3655238151550293 22.1627674102783203
  4.2766871452331543  0.6899955272674561 11.6530780792236328
 12.2335605621337891  3.0676636695861816 11.9292078018188477
 16.7405300140380859  6.2413153648376465 11.8276576995849609
  9.9027347564697266  1.5998275279998779 12.4041090011596680
 14.4631280899047852  4.7734341621398926 12.4030380249023438
  5.9176778793334961  3.1683347225189209 14.7590970993041992
 10.5765275955200195  6.3620953559875488 14.7810878753662109
 10.6809892654418945  3.2051954269409180 14.5627508163452148
 14.9290657043457031  6.3389177322387695 14.7455987930297852
  8.0165748596191406  1.5487685203552246 13.9810504913330078
 12.8379955291748047  4.7882409095764160 14.2191448211669922
  3.6622345447540283  1.4598580598831177 14.2631235122680664
  8.1269226074218750  4.6182737350463867 14.1383180618286133
  7.6960153579711914  3.1115107536315918 16.3967018127441406
 12.1766357421875000  6.3021531105041504 16.5949096679687500
 12.2860612869262695  3.1218781471252441 16.4644184112548828
 16.7783546447753906  6.3387985229492188 16.3992919921875000
  5.4139022827148438  1.5789632797241211 16.9731063842773438
  9.9381637573242188  4.7548937797546387 16.9044113159179688
  9.9348421096801758  1.5694944858551025 16.8943653106689453
 14.5484533309936523  4.7508263587951660 16.9848346710205078
  5.9634470939636230  3.1676011085510254 19.2326602935791016
  1.3758875131607056  0.0062137977220118 19.1623916625976562
 10.5747051239013672  3.1862092018127441 19.0343170166015625
  5.9554853439331055  0.0192489940673113 19.2380199432373047
  8.2425928115844727  1.5560667514801025 18.6680030822753906
 12.8177013397216797  4.7527074813842773 18.7290267944335938
  3.7214338779449463  1.5649524927139282 18.7384414672851562
  8.1966562271118164  4.7537655830383301 18.6539402008056641
  7.7762861251831055  3.1506180763244629 20.9242210388183594
 12.0660610198974609  6.3057351112365723 21.0644016265869141
 12.1732282638549805  3.1443548202514648 20.8592243194580078
 16.8229675292968750  6.3341903686523438 20.8752765655517578
  5.6368656158447266  1.5697072744369507 21.6603126525878906
  9.9248857498168945  4.7663993835449219 21.4035148620605469
 10.0440807342529297  1.6303142309188843 21.4429283142089844
 14.6091747283935547  4.8879866600036621 21.4966545104980469
  6.0050420761108398  3.2549276351928711 23.8105926513671875
  1.4184818267822266  0.0140453130006790 23.7351264953613281
 10.3253469467163086  2.8368825912475586 23.8063087463378906
  3.7457339763641357  1.5238311290740967 23.2367019653320312
  8.2848510742187500  4.7245545387268066 23.2365798950195312
 10.6198835372924805  3.8355071544647217 24.7688045501708984
