Ir O 
 1.0000000000000000
     9.0898780822753906    0.0000000000000000   -4.5449390411376953
     9.0898780822753906    6.3790140151977539    0.0000000000000000
     0.0000000000000000    0.0000000000000000   40.9044494628906250
 Ir  O  
  20  42
Cartesian
  6.7644419670104980  1.6084500551223755 15.5184688568115234
 11.3951244354248047  4.8059997558593750 15.5686817169189453
  2.3610613346099854  1.5599019527435303 15.6450834274291992
  6.8518762588500977  4.7328629493713379 15.5699939727783203
  4.5189952850341797  3.2177174091339111 17.8126621246337891
 -0.0840355604887009  0.0075709964148700 17.7178230285644531
  9.0467004776000977  3.1756637096405029 13.4623546600341797
  4.4652166366577148  0.1037742495536804 13.2518568038940430
  6.8703503608703613  1.5806673765182495 20.0835666656494141
 11.3295803070068359  4.7622060775756836 20.0332794189453125
  2.2724754810333252  1.5947524309158325 20.0734863281250000
  6.8174047470092773  4.7842516899108887 20.0735092163085938
  4.6288952827453613  3.1818027496337891 22.4291000366210938
  0.0259235147386789 -0.0283556096255779 22.3343009948730469
  9.0673046112060547  3.1864767074584961 17.7675838470458984
  4.5674791336059570  0.0027254337910563 17.8344669342041016
  2.1839168071746826  1.6297010183334351 24.5019245147705078
  6.7829055786132812  4.8358206748962402 24.5770339965820312
  9.1696195602416992  3.0858402252197266 22.3499011993408203
  4.5881142616271973  0.0139107154682279 22.1396636962890625
  4.2689561843872070  0.7302945852279663 11.6472940444946289
 12.2187528610229492  3.0987863540649414 11.9218502044677734
  7.6385245323181152 -0.1027264967560768 11.8125028610229492
  9.8909235000610352  1.6324003934860229 12.3938293457031250
 14.4481716156005859  4.8057355880737305 12.3897380828857422
  5.9090890884399414  3.2018623352050781 14.7476968765258789
  1.4773775339126587  0.0149337183684111 14.7664422988891602
 10.6711101531982422  3.2332625389099121 14.5473508834838867
  5.8277506828308105 -0.0042382804676890 14.7284421920776367
  8.0091056823730469  1.5809715986251831 13.9744472503662109
 12.8275194168090820  4.8180236816406250 14.2074441909790039
  3.6480007171630859  1.4945496320724487 14.2537307739257812
  8.1090059280395508  4.6522741317749023 14.1203746795654297
  7.6939182281494141  3.1413946151733398 16.3718433380126953
  3.0764448642730713 -0.0471865870058537 16.5804824829101562
 12.2760019302368164  3.1527986526489258 16.4476795196533203
  7.6762528419494629 -0.0077623031102121 16.3874568939208984
  5.4014520645141602  1.6103174686431885 16.9575252532958984
  9.9215049743652344  4.7876625061035156 16.8860645294189453
  9.9219865798950195  1.5979973077774048 16.8758678436279297
 14.5447683334350586  4.7824964523315430 16.9702262878417969
  5.9585328102111816  3.1973361968994141 19.2145843505859375
  1.3588676452636719  0.0367095656692982 19.1543674468994141
 10.5583868026733398  3.2367942333221436 19.0215854644775391
  5.9409766197204590  0.0481581091880798 19.2302303314208984
  8.2334117889404297  1.5793646574020386 18.6444320678710938
 12.8031692504882812  4.7809729576110840 18.7158737182617188
  3.7128100395202637  1.5916001796722412 18.7261295318603516
  8.1799163818359375  4.7860937118530273 18.6317405700683594
  7.8071384429931641  3.1937909126281738 20.8736038208007812
  2.9636638164520264 -0.0437090694904327 21.0546112060546875
 12.1574182510375977  3.1746485233306885 20.8355388641357422
  7.7257051467895508 -0.0123215755447745 20.8542919158935547
  5.6257529258728027  1.6085829734802246 21.6276283264160156
  9.8971529006958008  4.7505483627319336 21.3945980072021484
  9.9868488311767578  1.6949571371078491 21.3483562469482422
 14.6156988143920898  4.9162588119506836 21.4816207885742188
  5.9963011741638184  3.2922163009643555 23.7895679473876953
  1.4160388708114624  0.0907121971249580 23.6801166534423828
  9.3658838272094727  2.4590737819671631 23.9550819396972656
  3.7438602447509766  1.5571085214614868 23.2082080841064453
  8.2765188217163086  4.7628374099731445 23.2123146057128906
