Ir O 
 1.0000000000000000
     9.0898780822753906    0.0000000000000000   -4.5449390411376953
     9.0898780822753906    6.3790140151977539    0.0000000000000000
     0.0000000000000000    0.0000000000000000   40.9044494628906250
 Ir  O  
  20  42
Cartesian
  6.8174085617065430  1.5947535037994385 15.5285339355468750
 11.3623476028442383  4.7842602729797363 15.5285339355468750
  2.2724695205688477  1.5947535037994385 15.5285568237304688
  6.8174085617065430  4.7842602729797363 15.5285568237304688
  4.5449390411376953  3.1895070075988770 17.8010044097900391
  0.0000000000000000  0.0000000000000000 17.8010044097900391
  9.0898780822753906  3.1895070075988770 13.2560873031616211
  4.5449390411376953  0.0000000000000000 13.2560873031616211
  6.8174085617065430  1.5947535037994385 20.0734691619873047
 11.3623476028442383  4.7842602729797363 20.0734691619873047
  2.2724695205688477  1.5947535037994385 20.0734920501708984
  6.8174085617065430  4.7842602729797363 20.0734920501708984
  4.5449390411376953  3.1895070075988770 22.3459377288818359
  0.0000000000000000  0.0000000000000000 22.3459377288818359
  9.0898780822753906  3.1895070075988770 17.8010215759277344
  4.5449390411376953  0.0000000000000000 17.8010215759277344
  2.2724695205688477  1.5947535037994385 24.6184253692626953
  6.8174085617065430  4.7842602729797363 24.6184253692626953
  9.0898780822753906  3.1895070075988770 22.3459568023681641
  4.5449390411376953  0.0000000000000000 22.3459568023681641
  3.1434888839721680  0.0000000000000000 11.8546094894409180
 12.2333669662475586  3.1895070075988770 11.8546276092529297
  7.6884279251098633  0.0000000000000000 11.8546276092529297
  9.9608974456787109  1.5947535037994385 12.3850364685058594
 14.5058364868164062  4.7842602729797363 12.3850364685058594
  5.9463891983032227  3.1895070075988770 14.6575059890747070
  1.4014501571655273  0.0000000000000000 14.6575059890747070
 10.4913282394409180  3.1895070075988770 14.6575241088867188
  5.9463891983032227  0.0000000000000000 14.6575241088867188
  8.2188587188720703  1.5947535037994385 14.1270751953125000
 12.7637977600097656  4.7842602729797363 14.1270751953125000
  3.6739196777343750  1.5947535037994385 14.1270971298217773
  8.2188587188720703  4.7842602729797363 14.1270971298217773
  7.6884279251098633  3.1895070075988770 16.3995437622070312
  3.1434888839721680  0.0000000000000000 16.3995437622070312
 12.2333669662475586  3.1895070075988770 16.3995628356933594
  7.6884279251098633  0.0000000000000000 16.3995628356933594
  5.4159584045410156  1.5947535037994385 16.9299926757812500
  9.9608974456787109  4.7842602729797363 16.9299926757812500
  9.9608974456787109  1.5947535037994385 16.9300117492675781
 14.5058364868164062  4.7842602729797363 16.9300117492675781
  5.9463891983032227  3.1895070075988770 19.2024803161621094
  1.4014501571655273  0.0000000000000000 19.2024803161621094
 10.4913282394409180  3.1895070075988770 19.2024574279785156
  5.9463891983032227  0.0000000000000000 19.2024574279785156
  8.2188587188720703  1.5947535037994385 18.6720504760742188
 12.7637977600097656  4.7842602729797363 18.6720504760742188
  3.6739196777343750  1.5947535037994385 18.6720314025878906
  8.2188587188720703  4.7842602729797363 18.6720314025878906
  7.6884279251098633  3.1895070075988770 20.9445190429687500
  3.1434888839721680  0.0000000000000000 20.9445190429687500
 12.2333669662475586  3.1895070075988770 20.9444961547851562
  7.6884279251098633  0.0000000000000000 20.9444961547851562
  5.4159584045410156  1.5947535037994385 21.4749279022216797
  9.9608974456787109  4.7842602729797363 21.4749279022216797
  9.9608974456787109  1.5947535037994385 21.4749450683593750
 14.5058364868164062  4.7842602729797363 21.4749450683593750
  5.9463891983032227  3.1895070075988770 23.7474155426025391
  1.4014501571655273  0.0000000000000000 23.7474155426025391
 10.4913282394409180  3.1895070075988770 23.7473926544189453
  3.6739196777343750  1.5947535037994385 23.2169666290283203
  8.2188587188720703  4.7842602729797363 23.2169666290283203
