Ir C  O 
 1.0000000000000000
     9.0898780822753906    0.0000000000000000    0.0000000000000000
     0.0000000000000000   10.4430866241455078    1.7762320041656494
     0.0000000000000000    0.0000000000000000   33.3145523071289062
 Ir  C   O  
  32   1  49
Cartesian
  2.2958052158355713 10.2988510131835938 14.9149866104125977
  6.8346915245056152 10.2767057418823242 14.9194974899291992
  2.2695634365081787  2.5607523918151855 14.9699239730834961
  6.8111267089843750  2.5571992397308350 14.9491033554077148
  2.2751188278198242  5.1878819465637207 16.8174381256103516
  6.8122134208679199  5.2014942169189453 16.7819538116455078
  2.0451667308807373  8.1402788162231445 13.4370737075805664
  6.5874872207641602  8.1342229843139648 13.4489145278930664
  0.0022398368455470 10.4175300598144531 17.6861705780029297
  4.5348110198974609 10.4204597473144531 17.6986045837402344
  0.2351639568805695  2.9218876361846924 12.5542802810668945
  4.7629227638244629  2.9106495380401611 12.5612773895263672
  9.0712471008300781  5.0664987564086914 14.0217266082763672
  4.5118498802185059  5.0738635063171387 14.0250148773193359
  0.0103545524179935  7.7769322395324707 15.8444070816040039
  4.5355582237243652  7.7825284004211426 15.8548593521118164
  2.2501530647277832 10.4273118972778320 20.4851055145263672
  6.8216261863708496 10.4231252670288086 20.4720287322998047
  2.2473049163818359  2.7381091117858887 20.5098819732666016
  6.8062233924865723  2.6542630195617676 20.5159263610839844
  2.4902405738830566  4.8914155960083008 21.9593753814697266
  7.1215100288391113  4.6809153556823730 22.2649250030517578
  2.2666771411895752  7.7738585472106934 18.6495456695556641
  6.8156819343566895  7.7987499237060547 18.6204986572265625
  8.8355827331542969 10.0090894699096680 22.8981723785400391
  4.3053913116455078 10.1026172637939453 22.8636474609375000
  9.0756072998046875  2.5701308250427246 17.7421150207519531
  4.5498871803283691  2.5750846862792969 17.7537231445312500
  9.0404233932495117  5.2013177871704102 19.5770530700683594
  4.6025791168212891  5.2152419090270996 19.6103744506835938
  9.0867023468017578  7.8750863075256348 21.3786849975585938
  4.5596113204956055  7.9433927536010742 21.4115066528320312
  6.4203629493713379  3.5814106464385986 23.5570125579833984
  3.4295887947082520  8.7755146026611328 14.5569896697998047
  7.9951486587524414  8.7767009735107422 14.5437488555908203
  3.2205293178558350  0.8357736468315125 14.7282066345214844
  7.7738704681396484  0.8352039456367493 14.7123813629150391
  3.1462216377258301  3.3853719234466553 16.6059246063232422
  7.6846413612365723  3.3949406147003174 16.5788249969482422
  0.8701151013374329  9.6095952987670898 16.0652790069580078
  5.3837466239929199  9.6219854354858398 16.0616855621337891
  0.8940151333808899  1.7547745704650879 16.1407699584960938
  5.4288744926452637  1.7614380121231079 16.1291751861572266
  0.7064585685729980  6.9977407455444336 14.0803375244140625
  5.2347965240478516  7.0077762603759766 14.0881567001342773
  1.5714441537857056  1.7829695940017700 13.2054853439331055
  6.1135945320129395  1.7715636491775513 13.1858510971069336
  1.4009586572647095  4.3869414329528809 15.1934394836425781
  5.9499597549438477  4.3900909423828125 15.1622991561889648
  1.3773519992828369  6.9642543792724609 17.0327339172363281
  5.9165911674499512  6.9810461997985840 17.0159072875976562
  3.3683238029479980  3.5574502944946289 13.6660356521606445
  7.9189610481262207  3.5555436611175537 13.6529626846313477
  3.5855112075805664  6.0535712242126465 15.6154680252075195
  8.1289253234863281  6.0640134811401367 15.5879201889038086
  3.6652083396911621  8.6059150695800781 17.5002841949462891
  8.2182760238647461  8.6128625869750977 17.4691829681396484
  3.0997197628021240  8.5824441909790039 20.2834358215332031
  7.6911807060241699  8.6115818023681641 20.2313175201416016
  2.9320662021636963  0.7797313928604126 20.4825782775878906
  7.5124325752258301  0.7261911630630493 20.4709453582763672
  3.1760163307189941  5.9875168800354004 18.4444332122802734
  7.7051186561584473  6.0168008804321289 18.3849411010742188
  1.1194251775741577  9.4086513519287109 21.7485866546630859
  5.7145991325378418  9.4382476806640625 21.7802085876464844
  0.8775916099548340  4.3642840385437012 17.9699668884277344
  5.4260911941528320  4.3857531547546387 17.9465274810791016
  0.9395483136177063  6.9015579223632812 19.8369407653808594
  5.5073232650756836  6.9542355537414551 19.8319435119628906
  1.3936034440994263  9.5879421234130859 18.8430881500244141
  5.9435119628906250  9.6036081314086914 18.8360042572021484
  1.3067330121994019  1.7183647155761719 18.9405632019042969
  5.8772673606872559  1.7116796970367432 18.9379291534423828
  1.0674504041671753  4.2292680740356445 20.8911762237548828
  5.7256174087524414  4.2035026550292969 20.8766479492187500
  3.6487259864807129  0.7884033322334290 17.5480899810791016
  8.1879262924194336  0.7902191877365112 17.5159530639648438
  3.7257208824157715  3.3740351200103760 19.3973789215087891
  8.1976137161254883  3.3776404857635498 19.3611755371093750
  3.8830354213714600  5.9908695220947266 21.3738288879394531
  8.1968832015991211  5.9964642524719238 21.2385253906250000
  6.0045032501220703  2.9063897132873535 24.4189262390136719
