Ir C  O 
 1.0000000000000000
     9.0898780822753906    0.0000000000000000    0.0000000000000000
     0.0000000000000000   10.4430866241455078    1.7762320041656494
     0.0000000000000000    0.0000000000000000   33.3145523071289062
 Ir  C   O  
  32   1  49
Cartesian
  2.2740776538848877 -0.0367658287286758 13.1687841415405273
  6.8186450004577637 -0.0353830568492413 13.1693744659423828
  2.2710976600646973  2.5967073440551758 15.0067548751831055
  6.8160276412963867  2.5981020927429199 15.0059289932250977
  2.2778272628784180  5.2161288261413574 16.8406314849853516
  6.8208022117614746  5.2156062126159668 16.8393840789794922
  2.2535796165466309  7.8232760429382324 13.2771224975585938
  6.7983708381652832  7.8228459358215332 13.2768697738647461
 -0.0030002959538251 -0.0046553192660213 15.9509429931640625
  4.5432147979736328 -0.0057250047102571 15.9525518417358398
  0.0190623831003904  2.6019129753112793 12.3885173797607422
  4.5635867118835449  2.6014988422393799 12.3882732391357422
 -0.0013231226475909  5.1862225532531738 14.0568714141845703
  4.5429973602294922  5.1861209869384766 14.0567064285278320
  0.0008469948079437  7.8189640045166016 15.8930759429931641
  4.5455985069274902  7.8194398880004883 15.8942499160766602
  2.2734868526458740  0.0167261697351933 18.7545566558837891
  6.8169646263122559  0.0141454748809338 18.7498283386230469
  2.2626104354858398  2.6541621685028076 20.5804615020751953
  6.9033331871032715  2.6925723552703857 20.6007442474365234
  2.2962486743927002  5.2326254844665527 22.2598342895507812
  6.8277096748352051  5.2381424903869629 22.2630462646484375
  2.2696738243103027  7.8377037048339844 18.6934833526611328
  6.8084812164306641  7.8227257728576660 18.6910934448242188
 -0.0256391819566488  0.0035327919758856 21.3843307495117188
  4.5306200981140137 -0.0660146176815033 21.3811645507812500
  0.0095359180122614  2.6203665733337402 17.8020610809326172
  4.5407547950744629  2.6100680828094482 17.8020858764648438
 -0.0033369851298630  5.2385201454162598 19.6403160095214844
  4.5448312759399414  5.2407417297363281 19.6347312927246094
 -0.0010749689536169  7.8653445243835449 21.4690685272216797
  4.5380878448486328  7.8771066665649414 21.5064201354980469
  6.5178360939025879  1.8321403264999390 22.3675308227539062
  3.1493861675262451  8.6740484237670898 14.7068853378295898
  7.6940512657165527  8.6739292144775391 14.7077856063842773
  3.1565258502960205  0.8262795805931091 14.8264484405517578
  7.7022342681884766  0.8261007070541382 14.8258581161499023
  3.1427342891693115  3.4128463268280029 16.6444778442382812
  7.6886124610900879  3.4106101989746094 16.6480026245117188
  0.8597971200942993  9.6312341690063477 16.0931282043457031
  5.4044032096862793  9.6301145553588867 16.0931549072265625
  0.8727584481239319  1.8129439353942871 16.1687412261962891
  5.4188585281372070  1.8160762786865234 16.1684265136718750
  0.8809500932693481  7.0320439338684082 14.2195854187011719
  5.4258861541748047  7.0317530632019043 14.2194929122924805
  1.3909397125244141  1.8112846612930298 13.3316183090209961
  5.9361686706542969  1.8102899789810181 13.3313760757446289
  1.4126503467559814  4.4094238281250000 15.2056245803833008
  5.9585170745849609  4.4080758094787598 15.2051086425781250
  1.3976906538009644  7.0369305610656738 17.0572128295898438
  5.9443898200988770  7.0373673439025879 17.0578708648681641
  3.6690263748168945  3.4529683589935303 13.8200807571411133
  8.2138814926147461  3.4522223472595215 13.8197479248046875
  3.6600351333618164  6.0479598045349121 15.7137670516967773
  8.2049732208251953  6.0474705696105957 15.7143650054931641
  3.6737043857574463  8.6312971115112305 17.5333003997802734
  8.2209262847900391  8.6356925964355469 17.5358467102050781
  3.1318657398223877  8.6457262039184570 20.3297710418701172
  7.6799812316894531  8.6431865692138672 20.3311214447021484
  3.1260077953338623  0.8009648323059082 20.4049072265625000
  7.7093734741210938  0.7720422744750977 20.3931732177734375
  3.1455886363983154  6.0171284675598145 18.4781455993652344
  7.6920495033264160  6.0195579528808594 18.4784126281738281
  0.8782534003257751  9.6104402542114258 21.7163524627685547
  5.4183764457702637  9.5804901123046875 21.7004680633544922
  0.8706212639808655  4.4205446243286133 17.9993686676025391
  5.4172592163085938  4.4223885536193848 18.0022449493408203
  0.8818195462226868  7.0078191757202148 19.8257503509521484
  5.4376540184020996  7.0022192001342773 19.8050804138183594
  1.3997189998626709  9.6405439376831055 18.8870601654052734
  5.9455571174621582  9.6438627243041992 18.8883476257324219
  1.3901700973510742  1.7825173139572144 18.9356460571289062
  5.9368247985839844  1.7810466289520264 18.8988018035888672
  1.3956544399261475  4.3782391548156738 20.8246326446533203
  5.9487528800964355  4.4054260253906250 20.8326377868652344
  3.6705307960510254  0.7985782623291016 17.5918197631835938
  8.2167587280273438  0.7947462797164917 17.5915813446044922
  3.6812813282012939  3.4218230247497559 19.4417266845703125
  8.2135686874389648  3.4152526855468750 19.4445114135742188
  3.6621563434600830  6.0212345123291016 21.3100204467773438
  8.2097539901733398  6.0228972434997559 21.3139991760253906
  5.4940996170043945  1.8200354576110840 21.8948307037353516
