Ir O 
 1.0000000000000000
     9.0898780822753906    0.0000000000000000    0.0000000000000000
     0.0000000000000000    9.5685205459594727   -4.5449390411376953
     0.0000000000000000    0.0000000000000000   36.3595123291015625
 Ir  O  
  36  58
Cartesian
  2.2762238979339600  1.5543060302734375 12.8829565048217773
  6.8198237419128418  1.5561422109603882 12.8848266601562500
  2.2707383632659912  4.7657213211059570 12.8745679855346680
  6.8166675567626953  4.7666153907775879 12.8738594055175781
  2.2549231052398682  8.0488510131835938  8.4557294845581055
  6.8009657859802246  8.0470895767211914  8.4529294967651367
  0.0014734691940248 -0.0184078253805637 15.1471786499023438
  4.5464344024658203 -0.0184516496956348 15.1468181610107422
  0.0168247278779745  3.2634184360504150 10.7262611389160156
  4.5615797042846680  3.2629191875457764 10.7259731292724609
 -0.0036733106244355  6.3394064903259277 10.6115016937255859
  4.5410990715026855  6.3395185470581055 10.6105146408081055
  2.2712721824645996  1.5926301479339600 17.4239101409912109
  6.8165163993835449  1.5933772325515747 17.4211883544921875
  2.2716605663299561  4.7972664833068848 17.4288253784179688
  6.8138566017150879  4.7963480949401855 17.4299945831298828
  2.2743842601776123  7.9610004425048828 12.8711423873901367
  6.8202404975891113  7.9608612060546875 12.8712596893310547
  0.0027326899580657  0.0098494524136186 19.6984291076660156
  4.5457057952880859  0.0141529906541109 19.6990127563476562
 -0.0018302468815818  3.1770834922790527 15.1442413330078125
  4.5433483123779297  3.1760220527648926 15.1444053649902344
 -0.0000868083370733  6.3796339035034180 15.1496715545654297
  4.5456624031066895  6.3794436454772949 15.1502218246459961
  2.2713649272918701  1.6324759721755981 21.9579849243164062
  6.8141450881958008  1.6341350078582764 21.9551448822021484
  2.4673190116882324  4.7485694885253906 21.9898262023925781
  6.6700162887573242  4.7952318191528320 21.9780197143554688
  2.2761430740356445  7.9960832595825195 17.4261951446533203
  6.8196163177490234  7.9912052154541016 17.4224128723144531
 -0.0209565311670303 -0.0801656395196915 24.1072692871093750
  4.5234160423278809 -0.0802470743656158 24.1095733642578125
 -0.0055445530451834  3.2025227546691895 19.6912822723388672
  4.5423159599304199  3.2132394313812256 19.7074737548828125
  0.0186291597783566  6.4067878723144531 19.6902885437011719
  4.5430316925048828  6.4188489913940430 19.6723003387451172
  3.1510970592498779  0.0012485006591305 13.6851091384887695
  7.6963419914245605  0.0026460788212717 13.6856975555419922
  3.1588940620422363  3.2134976387023926 13.7452220916748047
  7.7031025886535645  3.2121813297271729 13.7450847625732422
  0.8588956594467163  1.5788000822067261 14.2710542678833008
  5.4045639038085938  1.5791620016098022 14.2706623077392578
  0.8784793615341187  7.9435119628906250  9.6837635040283203
  5.4225902557373047  7.9438247680664062  9.6851711273193359
  1.3943910598754883  3.1597843170166016 11.9567699432373047
  5.9397625923156738  3.1593923568725586 11.9573411941528320
  1.4134738445281982  6.3637375831604004 11.9987430572509766
  5.9584188461303711  6.3636465072631836 11.9989557266235352
  3.6670565605163574  4.7867655754089355 11.4124183654785156
  8.2114362716674805  4.7863903045654297 11.4131984710693359
  3.6586008071899414  7.9980678558349609 11.4728078842163086
  8.2039585113525391  7.9974889755249023 11.4722709655761719
  3.1444492340087891 -0.0033540537115186 18.2966632843017578
  7.6902923583984375 -0.0032820983324200 18.2971153259277344
  3.1451716423034668  3.1800348758697510 18.2950534820556641
  7.6877679824829102  3.1906821727752686 18.2908325195312500
  3.1434814929962158  6.3802185058593750 13.7491340637207031
  7.6897869110107422  6.3799138069152832 13.7505979537963867
  0.8702521324157715  1.5880162715911865 18.8239383697509766
  5.4160456657409668  1.5944916009902954 18.8228111267089844
  0.8703076243400574  4.7948222160339355 14.2792320251464844
  5.4159159660339355  4.7943191528320312 14.2786560058593750
  0.8716337680816650  7.9790415763854980 14.2764348983764648
  5.4158301353454590  7.9787373542785645 14.2764539718627930
  1.4017823934555054  0.0096099525690079 16.5512008666992188
  5.9464206695556641  0.0092502720654011 16.5512542724609375
  1.4019259214401245  3.1947309970855713 16.5485706329345703
  5.9463624954223633  3.1939537525177002 16.5486087799072266
  1.3998110294342041  6.3784966468811035 16.5484943389892578
  5.9463815689086914  6.3794465065002441 16.5502586364746094
  3.6726038455963135  1.5963656902313232 16.0230770111083984
  8.2176427841186523  1.5959193706512451 16.0226879119873047
  3.6717538833618164  4.7797007560729980 16.0247802734375000
  8.2168016433715820  4.7808628082275391 16.0250263214111328
  3.6743671894073486  7.9641590118408203 16.0213127136230469
  8.2183732986450195  7.9628906250000000 16.0219211578369141
  3.1556627750396729  0.0292371902614832 22.8919601440429688
  7.6991839408874512  0.0283501874655485 22.8949775695800781
  3.1360285282135010  6.3924155235290527 18.3073139190673828
  7.6719794273376465  6.3932375907897949 18.2977828979492188
  0.8870775699615479  4.7609505653381348 18.8299026489257812
  5.4306011199951172  4.7636494636535645 18.8265533447265625
  0.8711059093475342  7.9722838401794434 18.8927898406982422
  5.4203720092773438  7.9743490219116211 18.8878765106201172
  1.3871766328811646 -0.0207967981696129 21.1014328002929688
  5.9336242675781250 -0.0210774429142475 21.1020717620849609
  1.3578161001205444  3.1999783515930176 21.1214981079101562
  5.9588971138000488  3.1861150264739990 21.1468143463134766
  3.6856999397277832  1.6097657680511475 20.5757255554199219
  8.2334012985229492  1.6123069524765015 20.5693931579589844
  3.6585755348205566  4.8021354675292969 20.5887260437011719
  8.2246074676513672  4.7816720008850098 20.6023235321044922
  5.3913712501525879  5.4329824447631836 23.3448238372802734
  3.6943681240081787  5.4623456001281738 23.3760833740234375
