Ir O 
 1.0000000000000000
     9.0898780822753906    0.0000000000000000    0.0000000000000000
     0.0000000000000000    9.5685205459594727   -4.5449390411376953
     0.0000000000000000    0.0000000000000000   36.3595123291015625
 Ir  O  
  36  58
Cartesian
  2.2994976043701172  1.4821577072143555 12.9449920654296875
  6.8461375236511230  1.4896142482757568 12.9568386077880859
  2.2591257095336914  4.7591991424560547 12.8848323822021484
  6.8255686759948730  4.7604317665100098 12.9010553359985352
  2.0528306961059570  8.4447612762451172  8.4412584304809570
  6.5950026512145996  8.4524488449096680  8.4510612487792969
  0.0169299878180027  9.5388994216918945 10.6068058013916016
  4.5523982048034668  9.5341510772705078 10.6182584762573242
  0.2214374244213104  3.6600601673126221 10.7160816192626953
  4.7731323242187500  3.6657540798187256 10.7322950363159180
  9.0725364685058594  6.2724056243896484 10.6760663986206055
  4.5323629379272461  6.2685904502868652 10.7000045776367188
  2.2650206089019775  1.5890868902206421 17.4285011291503906
  6.8457093238830566  1.5688933134078979 17.4129657745361328
  2.2935264110565186  4.7904863357543945 17.4589576721191406
  6.8181300163269043  4.7443690299987793 17.3867835998535156
  2.2639789581298828  7.9760241508483887 12.8833322525024414
  6.8409075736999512  7.9730334281921387 12.8900213241577148
  0.0264340024441481  0.0232595428824425 19.7423057556152344
  4.5530395507812500  9.5501165390014648 15.1584730148315430
  0.0219123326241970  3.1937279701232910 15.1522655487060547
  4.5370078086853027  3.1774282455444336 15.1417102813720703
  0.0141027634963393  6.3904786109924316 15.1867399215698242
  4.5379390716552734  6.3636145591735840 15.1424608230590820
  2.2932686805725098  1.6989609003067017 21.9508056640625000
  6.8220405578613281  1.6136801242828369 21.8677845001220703
  2.6840612888336182  4.2043771743774414 22.2508106231689453
  6.4597234725952148  5.2551236152648926 21.4682102203369141
  2.3156347274780273  7.9941697120666504 17.4450492858886719
  6.7555074691772461  7.9639205932617188 17.4397506713867188
  8.8288583755493164  9.1062297821044922 19.5726890563964844
  4.3218221664428711  9.0039710998535156 19.7014961242675781
  9.0773010253906250  3.2496621608734131 19.7117023468017578
  4.5577263832092285  3.1317219734191895 19.6631126403808594
 -0.0021937510464340  6.4945316314697266 19.5590305328369141
  4.6862049102783203  6.2388672828674316 19.7971992492675781
  3.4484302997589111  0.0371682494878769 13.5220422744750977
  8.0028705596923828  0.0450824685394764 13.5103082656860352
  3.2158632278442383  3.2097561359405518 13.6752128601074219
  7.7911357879638672  3.2071847915649414 13.6803922653198242
  0.8762586116790771  1.5947353839874268 14.2796516418457031
  5.3874192237854004  1.5872502326965332 14.2596015930175781
  0.6993772983551025  7.8817749023437500  9.6067008972167969
  5.2510600090026855  7.8824720382690430  9.6257677078247070
  1.5710724592208862  3.1010508537292480 11.8872652053833008
  6.1216583251953125  3.1163864135742188 11.9074077606201172
  1.4082956314086914  6.3822627067565918 12.0079469680786133
  5.9911322593688965  6.3846149444580078 12.0012092590332031
  3.3647937774658203  4.8268365859985352 11.2434406280517578
  7.9260797500610352  4.8286867141723633 11.2589282989501953
  3.5885093212127686  7.9884810447692871 11.4137897491455078
  8.1531915664672852  7.9944276809692383 11.4120492935180664
  3.1518990993499756  9.5610780715942383 13.7442789077758789
  7.7201814651489258  0.0045909765176475 18.3211956024169922
  3.1351246833801270  3.1457562446594238 18.3013553619384766
  7.7076339721679688  3.1761074066162109 18.2780857086181641
  3.1318151950836182  6.3761577606201172 13.7437105178833008
  7.7030258178710938  6.3810749053955078 13.7704286575317383
  0.9134883880615234  1.6211348772048950 18.8831901550292969
  5.4582514762878418  1.5512617826461792 18.8242187500000000
  0.8991366624832153  4.7891345024108887 14.3222217559814453
  5.4268927574157715  4.7635865211486816 14.3003511428833008
  0.8743583559989929  7.9829864501953125 14.3097257614135742
  5.4304380416870117  7.9623231887817383 14.2812395095825195
  1.3718014955520630  9.5582323074340820 12.0465278625488281
  5.9505310058593750  9.5461959838867188 12.0276060104370117
  1.4013996124267578  3.1934812068939209 16.5729770660400391
  5.9660086631774902  3.1448874473571777 16.5093517303466797
  1.4262584447860718  6.3905415534973145 16.5966072082519531
  5.9610905647277832  6.3470435142517090 16.5092258453369141
  3.6659538745880127  1.5815695524215698 16.0148773193359375
  8.2465982437133789  1.5875412225723267 16.0118961334228516
  3.6617860794067383  4.7735886573791504 16.0219173431396484
  8.2393531799316406  4.7794556617736816 16.0274581909179688
  3.6511609554290771  7.9619174003601074 15.9868164062500000
  8.1985931396484375  8.0065851211547852 16.0516872406005859
  3.0279903411865234  0.0446976236999035 23.0025043487548828
  7.3870234489440918  0.0572979301214218 23.0232315063476562
  3.1958868503570557  6.3851575851440430 18.3375759124755859
  7.6275868415832520  6.3496637344360352 18.2735996246337891
  0.9509113430976868  4.8035750389099121 18.9157676696777344
  5.3541464805603027  4.6608400344848633 18.6975879669189453
  1.1373451948165894  7.9523544311523438 19.0155258178710938
  5.5828967094421387  7.7936081886291504 19.0323657989501953
  1.3712862730026245  9.5645694732666016 16.6408958435058594
  5.7313113212585449  9.5485029220581055 16.7339458465576172
  1.2824401855468750  3.2278876304626465 21.2246036529541016
  6.0100388526916504  3.2685880661010742 21.0120487213134766
  3.8143558502197266  1.5825937986373901 20.6979217529296875
  8.3456506729125977  1.6563920974731445 20.6876678466796875
  3.5981659889221191  4.6585969924926758 20.5474281311035156
  8.0694532394409180  4.9237890243530273 20.4396820068359375
  6.2202572822570801  6.1318197250366211 22.9299602508544922
  2.9281473159790039  4.9692206382751465 23.7675514221191406
