Ir O 
 1.0000000000000000
     9.0898780822753906    0.0000000000000000    0.0000000000000000
     0.0000000000000000   10.4430866241455078    1.7762320041656494
     0.0000000000000000    0.0000000000000000   33.3145523071289062
 Ir  O  
  32  48
Cartesian
  2.2741198539733887 -0.0357072129845619 13.1689167022705078
  6.8190727233886719 -0.0357027202844620 13.1688957214355469
  2.2715604305267334  2.5975940227508545 15.0058841705322266
  6.8164978027343750  2.5975954532623291 15.0058851242065430
  2.2769887447357178  5.2171816825866699 16.8409404754638672
  6.8219265937805176  5.2171807289123535 16.8409404754638672
  2.2536048889160156  7.8230447769165039 13.2767829895019531
  6.7985434532165527  7.8230438232421875 13.2767829895019531
 -0.0045182146131992 -0.0043656281195581 15.9528226852416992
  4.5404181480407715 -0.0043611377477646 15.9528255462646484
  0.0188644956797361  2.6015005111694336 12.3886661529541016
  4.5637998580932617  2.6015028953552246 12.3886575698852539
 -0.0016581754898652  5.1858406066894531 14.0570201873779297
  4.5432882308959961  5.1858377456665039 14.0570383071899414
  0.0009130782564171  7.8191370964050293 15.8940029144287109
  4.5458483695983887  7.8191332817077637 15.8939990997314453
  2.2733819484710693  0.0131784444674850 18.7527275085449219
  6.8183188438415527  0.0131786540150642 18.7527275085449219
  2.2708191871643066  2.6464769840240479 20.5896930694580078
  6.8157463073730469  2.6464726924896240 20.5897159576416016
  2.2913310527801514  5.2308154106140137 22.2580814361572266
  6.8362731933593750  5.2308158874511719 22.2580738067626953
  2.2679464817047119  7.8366823196411133 18.6939029693603516
  6.8128900527954102  7.8366804122924805 18.6939010620117188
 -0.0188637692481279  0.0092706419527531 21.3699531555175781
  4.5260682106018066  0.0092737749218941 21.3699321746826172
  0.0045178509317338  2.6151299476623535 17.8057842254638672
  4.5494546890258789  2.6151335239410400 17.8057861328125000
 -0.0009111693943851  5.2347269058227539 19.6408424377441406
  4.5440268516540527  5.2347216606140137 19.6408386230468750
  0.0016556304180995  7.8680195808410645 21.4778175354003906
  4.5465917587280273  7.8680243492126465 21.4778118133544922
  3.1485674381256104  8.6743507385253906 14.7076530456542969
  7.6935133934020996  8.6743440628051758 14.7076549530029297
  3.1565825939178467  0.8266933560371399 14.8260412216186523
  7.7015314102172852  0.8266968131065369 14.8260517120361328
  3.1432070732116699  3.4103360176086426 16.6454296112060547
  7.6881442070007324  3.4103386402130127 16.6454277038574219
  0.8597078323364258  9.6300916671752930 16.0926513671875000
  5.4046406745910645  9.6300849914550781 16.0926551818847656
  0.8740774989128113  1.8153258562088013 16.1678733825683594
  5.4190168380737305  1.8153332471847534 16.1678733825683594
  0.8815203905105591  7.0316772460937500 14.2198810577392578
  5.4264554977416992  7.0316691398620605 14.2198781967163086
  1.3909497261047363  1.8101282119750977 13.3317623138427734
  5.9358892440795898  1.8101323843002319 13.3317661285400391
  1.4127666950225830  4.4085459709167480 15.2045392990112305
  5.9576973915100098  4.4085512161254883 15.2045326232910156
  1.3983879089355469  7.0368742942810059 17.0559864044189453
  5.9433312416076660  7.0368714332580566 17.0559883117675781
  3.6688387393951416  3.4528162479400635 13.8195409774780273
  8.2137784957885742  3.4528038501739502 13.8195362091064453
  3.6608252525329590  6.0482354164123535 15.7141542434692383
  8.2057600021362305  6.0482430458068848 15.7141666412353516
  3.6742019653320312  8.6318788528442383 17.5335426330566406
  8.2191429138183594  8.6318807601928711 17.5335426330566406
  3.1321792602539062  8.6453104019165039 20.3303089141845703
  7.6771183013916016  8.6453075408935547 20.3303070068359375
  3.1539900302886963  0.8006463050842285 20.4268455505371094
  7.6989254951477051  0.8006461858749390 20.4268417358398438
  3.1465497016906738  6.0169839859008789 18.4788551330566406
  7.6914868354797363  6.0169849395751953 18.4788532257080078
  0.8761118650436401  9.6010379791259766 21.7152881622314453
  5.4210438728332520  9.6010398864746094 21.7152996063232422
  0.8707412481307983  4.4219822883605957 18.0012969970703125
  5.4156789779663086  4.4219813346862793 18.0012969970703125
  0.8841156363487244  7.0056204795837402 19.8206825256347656
  5.4290542602539062  7.0056228637695312 19.8206825256347656
  1.4017300605773926  9.6435279846191406 18.8894119262695312
  5.9466719627380371  9.6435222625732422 18.8894119262695312
  1.3883576393127441  1.7840783596038818 18.9325675964355469
  5.9332842826843262  1.7840747833251953 18.9325580596923828
  1.3963565826416016  4.3794889450073242 20.8271694183349609
  5.9412951469421387  4.3794994354248047 20.8271751403808594
  3.6708600521087646  0.7954426407814026 17.5907402038574219
  8.2158031463623047  0.7954393029212952 17.5907344818115234
  3.6852290630340576  3.4237654209136963 19.4421920776367188
  8.2301769256591797  3.4237740039825439 19.4421863555908203
  3.6634309291839600  6.0221986770629883 21.3149528503417969
  8.2083654403686523  6.0221943855285645 21.3149585723876953
