Ir O 
 1.0000000000000000
     9.0898780822753906    0.0000000000000000    0.0000000000000000
     0.0000000000000000   10.4430866241455078    1.7762320041656494
     0.0000000000000000    0.0000000000000000   33.3145523071289062
 Ir  O  
  32  48
Cartesian
  2.2928726673126221 -0.1438898593187332 13.1836271286010742
  6.8377819061279297 -0.1438610404729843 13.1836395263671875
  2.2712342739105225  2.5757241249084473 15.0091495513916016
  6.8161573410034180  2.5757164955139160 15.0091485977172852
  2.2734515666961670  5.2243871688842773 16.8492584228515625
  6.8183851242065430  5.2244443893432617 16.8493156433105469
  2.0453104972839355  8.1424732208251953 13.4897756576538086
  6.5902452468872070  8.1424798965454102 13.4897928237915039
 -0.0009806160815060  0.0028661051765084 15.9611244201660156
  4.5439677238464355  0.0029088174924254 15.9611616134643555
  0.2272364944219589  2.9209268093109131 12.6017217636108398
  4.7721881866455078  2.9209518432617188 12.6017370223999023
 -0.0204555895179510  5.0776243209838867 14.0717201232910156
  4.5245051383972168  5.0776362419128418 14.0717258453369141
  0.0012471312656999  7.7972903251647949 15.8972454071044922
  4.5462164878845215  7.7972874641418457 15.8972406387329102
  2.2736845016479492  0.0349984392523766 18.7494735717773438
  6.8186116218566895  0.0350205786526203 18.7494831085205078
  2.2521235942840576  2.7546679973602295 20.5749855041503906
  6.7970714569091797  2.7546558380126953 20.5749721527099609
  2.4995791912078857  4.9113450050354004 22.0451126098632812
  7.0445199012756348  4.9113783836364746 22.0451049804687500
  2.2714736461639404  7.8294472694396973 18.6855487823486328
  6.8164138793945312  7.8293795585632324 18.6855144500732422
 -0.2271975874900818 -0.3102230727672577 21.1569480895996094
  4.3177404403686523 -0.3101952970027924 21.1569404602050781
  0.0009867062326521  2.6078610420227051 17.7974472045898438
  4.5459232330322266  2.6078157424926758 17.7974338531494141
 -0.0012400411069393  5.2565512657165527 19.6375312805175781
  4.5437135696411133  5.2565636634826660 19.6375427246093750
  0.0204325001686811  7.9762115478515625 21.4631309509277344
  4.5653610229492188  7.9762010574340820 21.4631252288818359
  3.4360060691833496  8.7840824127197266 14.5983152389526367
  7.9809632301330566  8.7840614318847656 14.5983200073242188
  3.2228331565856934  0.8498814702033997 14.7634191513061523
  7.7677783966064453  0.8498751521110535 14.7634210586547852
  3.1474289894104004  3.4170401096343994 16.6400566101074219
  7.6923818588256836  3.4170327186584473 16.6400470733642578
  0.8603377938270569  9.6300401687622070 16.1141395568847656
  5.4053120613098145  9.6300354003906250 16.1141319274902344
  0.8911233544349670  1.7844380140304565 16.1825675964355469
  5.4360594749450684  1.7844361066818237 16.1825771331787109
  0.6965624690055847  7.0122861862182617 14.1301298141479492
  5.2415165901184082  7.0122919082641602 14.1301412582397461
  1.5759232044219971  1.7907873392105103 13.2419862747192383
  6.1208496093750000  1.7907947301864624 13.2419900894165039
  1.4121227264404297  4.4084100723266602 15.2259168624877930
  5.9570317268371582  4.4084038734436035 15.2258901596069336
  1.3813601732254028  7.0059061050415039 17.0706501007080078
  5.9263076782226562  7.0058879852294922 17.0706748962402344
  3.3813786506652832  3.5625314712524414 13.7101268768310547
  7.9263191223144531  3.5625519752502441 13.7101030349731445
  3.5945572853088379  6.0714054107666016 15.6515445709228516
  8.1395092010498047  6.0714182853698730 15.6515340805053711
  3.6699879169464111  8.6386871337890625 17.5281829833984375
  8.2149305343627930  8.6386947631835938 17.5281925201416016
  3.1328773498535156  8.6455049514770508 20.3089237213134766
  7.6778144836425781  8.6454954147338867 20.3089408874511719
  2.9690864086151123  0.8199805617332458 20.5165958404541016
  7.5140128135681152  0.8199953436851501 20.5165920257568359
  3.1635408401489258  6.0478892326354980 18.4641990661621094
  7.7084689140319824  6.0479221343994141 18.4641819000244141
  1.1635180711746216  9.4913930892944336 21.8246631622314453
  5.7084660530090332  9.4913835525512695 21.8246860504150391
  0.8749740123748779  4.4152216911315918 18.0066356658935547
  5.4199285507202148  4.4152364730834961 18.0066413879394531
  0.9503710865974426  6.9824075698852539 19.8832950592041016
  5.4953088760375977  6.9824028015136719 19.8833103179931641
  1.3974657058715820  9.6368732452392578 18.8947925567626953
  5.9423956871032715  9.6368856430053711 18.8948059082031250
  1.3220837116241455  1.7608799934387207 18.9952316284179688
  5.8670301437377930  1.7608729600906372 18.9952468872070312
  1.1090157032012939  4.2698464393615723 20.9364624023437500
  5.6539411544799805  4.2698488235473633 20.9364662170410156
  3.6538350582122803  0.8263562321662903 17.5760574340820312
  8.1987695693969727  0.8263323307037354 17.5760688781738281
  3.6845350265502930  3.4238424301147461 19.4207649230957031
  8.2294740676879883  3.4238486289978027 19.4207515716552734
  3.8483135700225830  6.0415511131286621 21.4046745300292969
  8.3932371139526367  6.0415358543395996 21.4046649932861328
