H  Ir O 
 1.0000000000000000
     9.5685205459594727    0.0000000000000000    0.0000000000000000
     0.0000000000000000    9.0898780822753906   -4.5449390411376953
     0.0000000000000000    0.0000000000000000   36.3595123291015625
 H   Ir  O  
   9  33  68
Cartesian
  4.6302652359008789  1.0972107648849487 23.7003765106201172
  0.3406270146369934  2.9049422740936279 23.4087238311767578
  3.1865675449371338  2.8122696876525879 23.3353424072265625
  5.5218982696533203  6.1556591987609863 21.9951114654541016
  2.3323905467987061  6.1776957511901855 21.9922523498535156
  8.7062454223632812  6.1387267112731934 22.0172901153564453
  6.5350322723388672  2.9618525505065918 23.2662277221679688
  1.5107059478759766  1.1657016277313232 23.7607116699218750
  7.1012039184570312  0.3506250381469727 23.9900550842285156
  1.5830311775207520  2.3036129474639893 13.4834775924682617
  4.7844715118408203  2.3048908710479736 13.4843015670776367
  7.9675507545471191  2.2936055660247803 13.4755887985229492
  1.9324402809143066  6.7892141342163086  9.2373638153076172
  4.4335322380065918  6.7891535758972168  9.2360420227050781
  7.9686589241027832  6.9545693397521973  8.9954233169555664
  9.5500230789184570  4.4376897811889648 11.1066637039184570
  3.1828100681304932  4.3306021690368652 11.0818977355957031
  6.3841710090637207  4.4387989044189453 11.1070966720581055
 -0.0033370216842741  0.0372974947094917 15.7286233901977539
  3.1837055683135986  0.1510872244834900 15.7651128768920898
  6.3718562126159668  0.0366314798593521 15.7273378372192383
  1.5841983556747437  2.3291289806365967 18.0318603515625000
  4.7841143608093262  2.3296835422515869 18.0279045104980469
  7.9687738418579102  2.3119068145751953 18.0126762390136719
  1.5942085981369019  6.8158235549926758 13.3870649337768555
  4.7728896141052246  6.8153748512268066 13.3865356445312500
  7.9691100120544434  6.8131422996520996 13.4024000167846680
  9.5631256103515625  4.5885152816772461 15.7260847091674805
  3.1847014427185059  4.5942234992980957 15.7285642623901367
  6.3731703758239746  4.5918111801147461 15.7294225692749023
  0.0012702211970463  9.0756568908691406 15.7034835815429688
  3.1951286792755127  9.0468254089355469 15.6797790527343750
  6.3824219703674316  9.0658092498779297 15.6949062347412109
  1.5712392330169678  2.1665780544281006 22.5308208465576172
  4.6519222259521484  2.1450614929199219 22.5091514587402344
  7.8830661773681641  2.1953740119934082 22.5164909362792969
  1.5865192413330078  6.8513422012329102 18.0163230895996094
  4.7778234481811523  6.8581295013427734 18.0211200714111328
  7.9754304885864258  6.8437948226928711 18.0186309814453125
  9.5571746826171875  4.6007423400878906 20.3100585937500000
  3.1755952835083008  4.6280450820922852 20.2906475067138672
  6.3620629310607910  4.5968046188354492 20.2973442077636719
 -0.0040260506793857  1.4392031431198120 12.6731796264648438
  3.1845474243164062  1.4512101411819458 12.6757669448852539
  6.3699002265930176  1.4381386041641235 12.6749114990234375
  0.0032892748713493  5.9530067443847656 12.5026245117187500
  3.1843249797821045  5.9363780021667480 12.4660234451293945
  6.3637094497680664  5.9524154663085938 12.5021820068359375
  1.5724574327468872  3.6877644062042236 12.0894632339477539
  4.7931580543518066  3.6882996559143066 12.0894079208374023
  7.9667520523071289  3.7501533031463623 12.1358385086059570
  7.9704971313476562  7.2688417434692383  7.3028540611267090
  9.4466676712036133  3.0974717140197754  9.9125146865844727
  3.1823959350585938  2.9313390254974365  9.9515848159790039
  6.4857091903686523  3.0997614860534668  9.9113597869873047
  0.0546676404774189  7.6307730674743652  9.8117237091064453
  3.1838252544403076  8.2280168533325195  9.5267314910888672
  6.3129715919494629  7.6294870376586914  9.8101387023925781
  1.5699638128280640  1.0108647346496582 14.9494295120239258
  4.7978391647338867  1.0113452672958374 14.9497289657592773
  7.9683308601379395  0.9029000997543335 14.8714761734008789
  1.5879024267196655  5.1518592834472656 10.1132440567016602
  4.7770442962646484  5.1524882316589355 10.1126050949096680
  7.9680490493774414  5.4402947425842285 10.2788743972778320
  9.5637245178222656  1.4431855678558350 17.1494197845458984
  3.1836688518524170  1.4403074979782104 17.2347431182861328
  6.3758673667907715  1.4424393177032471 17.1483230590820312
  9.5636415481567383  5.9610013961791992 17.1463508605957031
  3.1878991127014160  5.9673738479614258 17.1495075225830078
  6.3723421096801758  5.9686675071716309 17.1518878936767578
  1.5893809795379639  3.7292096614837646 16.6138134002685547
  4.7788124084472656  3.7320213317871094 16.6133460998535156
  7.9677114486694336  3.7199604511260986 16.6071510314941406
  1.6037132740020752  8.2606582641601562 12.0240364074707031
  4.7637290954589844  8.2610683441162109 12.0235271453857422
  7.9685659408569336  8.2133045196533203 12.0075416564941406
  9.5553598403930664  3.1915323734283447 14.3364219665527344
  3.1828143596649170  3.2009382247924805 14.3357210159301758
  6.3809008598327637  3.1939115524291992 14.3376293182373047
 -0.0037524867802858  7.6922416687011719 14.2723827362060547
  3.1824312210083008  7.6803364753723145 14.2581825256347656
  6.3725118637084961  7.6860246658325195 14.2727050781250000
  1.5903154611587524  0.8760413527488708 19.3927536010742188
  4.7889051437377930  0.8673508167266846 19.3832340240478516
  7.9717378616333008  0.8779567480087280 19.3888626098632812
  1.5900741815567017  5.4449348449707031 14.8274841308593750
  4.7778983116149902  5.4447607994079590 14.8275470733642578
  7.9679203033447266  5.4485025405883789 14.8416852951049805
  9.5424938201904297  1.3330724239349365 21.6870555877685547
  3.1571912765502930  1.2514588832855225 21.6544532775878906
  6.3155665397644043  1.3348027467727661 21.6676692962646484
  0.0537511669099331  5.9165444374084473 21.7370986938476562
  3.2466015815734863  5.9494524002075195 21.7123107910156250
  6.4352397918701172  5.8956284523010254 21.7420654296875000
  1.5975328683853149  3.7353036403656006 21.1175117492675781
  4.7557406425476074  3.7321972846984863 21.1120986938476562
  7.9504213333129883  3.6800560951232910 21.1637268066406250
  1.5916659832000732  8.1675233840942383 16.5419425964355469
  4.7847313880920410  8.1645078659057617 16.5408210754394531
  7.9741625785827637  8.1742734909057617 16.5554141998291016
  9.5535621643066406  3.1929702758789062 18.8857402801513672
  3.1840310096740723  3.2113792896270752 18.8869991302490234
  6.3809390068054199  3.1981146335601807 18.8738613128662109
  9.5657520294189453  7.6870594024658203 18.8353328704833984
  3.1796066761016846  7.7047023773193359 18.8292312622070312
  6.3854107856750488  7.7243533134460449 18.8341941833496094
  7.8923563957214355  0.9527938961982727 23.9691371917724609
  1.5728993415832520  5.4781498908996582 19.4299392700195312
  4.7827978134155273  5.4864244461059570 19.4316406250000000
  7.9640440940856934  5.4594078063964844 19.4396324157714844
