H  Ir O 
 1.0000000000000000
     9.5685205459594727    0.0000000000000000    0.0000000000000000
     0.0000000000000000    9.0898780822753906   -4.5449390411376953
     0.0000000000000000    0.0000000000000000   36.3595123291015625
 H   Ir  O  
   9  33  68
Cartesian
  4.7847838401794434  0.9210271835327148 23.8923301696777344
  0.0010660289553925  3.1246657371520996 23.3903656005859375
  3.1894910335540771  3.1233785152435303 23.3910255432128906
  5.4468846321105957  5.9505238533020020 22.0555248260498047
  2.2573986053466797  5.9505310058593750 22.0557346343994141
  8.6363124847412109  5.9506239891052246 22.0559062957763672
  6.3783955574035645  3.1247265338897705 23.3904857635498047
  1.5946787595748901  0.9227688908576965 23.8903522491455078
  7.0416450500488281  0.8648955225944519 24.3262634277343750
  1.5927089452743530  2.2542166709899902 13.4240942001342773
  4.7862873077392578  2.2543401718139648 13.4240531921386719
  7.9736914634704590  2.2516827583312988 13.4247703552246094
  1.5950530767440796  6.8103709220886230  8.9522294998168945
  4.7838592529296875  6.8104195594787598  8.9522247314453125
  7.9737925529479980  6.9250841140747070  8.8490533828735352
 -0.0061605009250343  4.4654035568237305 11.0952568054199219
  3.1895194053649902  4.4695782661437988 11.0944252014160156
  6.3851299285888672  4.4654402732849121 11.0953407287597656
 -0.0018525613704696 -0.0034917858429253 15.7157278060913086
  3.1895053386688232 -0.0042837867513299 15.7165985107421875
  6.3809728622436523 -0.0035474158357829 15.7155866622924805
  1.5939179658889771  2.2730770111083984 17.9887962341308594
  4.7835187911987305  2.2734398841857910 17.9886455535888672
  7.9727001190185547  2.2729873657226562 17.9893207550048828
  1.5944688320159912  6.8209948539733887 13.4494895935058594
  4.7846269607543945  6.8208823204040527 13.4493951797485352
  7.9736361503601074  6.8208599090576172 13.4510898590087891
  0.0002117513649864  4.5456185340881348 15.7182760238647461
  3.1895494461059570  4.5456256866455078 15.7184944152832031
  6.3787155151367188  4.5457243919372559 15.7182693481445312
 -0.0004761296149809  0.0028823094908148 20.2684383392333984
  3.1898941993713379  0.0033748899586499 20.2704353332519531
  6.3797554969787598  0.0016239975811914 20.2671527862548828
  1.5980521440505981  2.2097594738006592 22.5951404571533203
  4.7822756767272949  2.2150123119354248 22.5948867797851562
  7.9639978408813477  2.2533388137817383 22.5600948333740234
  1.5932132005691528  6.8385448455810547 18.0150947570800781
  4.7835268974304199  6.8382158279418945 18.0138111114501953
  7.9764924049377441  6.8390603065490723 18.0122489929199219
  0.0001481207000325  4.5678596496582031 20.2778606414794922
  3.1842050552368164  4.5674705505371094 20.2787246704101562
  6.3692817687988281  4.5688896179199219 20.2778263092041016
  0.0015484737232327  1.4185917377471924 12.5915927886962891
  3.1895594596862793  1.4153324365615845 12.5916967391967773
  6.3775343894958496  1.4186087846755981 12.5915718078613281
  0.0000725293866708  5.9542040824890137 12.5821466445922852
  3.1894302368164062  5.9546775817871094 12.5820894241333008
  6.3789391517639160  5.9542689323425293 12.5821380615234375
  1.5968369245529175  3.6800537109375000 12.0546922683715820
  4.7821531295776367  3.6800291538238525 12.0547237396240234
  7.9737997055053711  3.6786158084869385 12.0567445755004883
  7.9737820625305176  8.1355514526367188  7.5555653572082520
 -0.0001541488745715  3.1998302936553955  9.8239727020263672
  3.1895036697387695  3.1996304988861084  9.8241434097290039
  6.3791875839233398  3.1998407840728760  9.8239650726318359
  0.0074070878326893  7.6824626922607422  9.7585725784301758
  3.1895122528076172  7.6913237571716309  9.7450056076049805
  6.3716111183166504  7.6825304031372070  9.7586746215820312
  1.5944300889968872  0.8737217783927917 14.8460941314697266
  4.7846136093139648  0.8737125396728516 14.8461427688598633
  7.9738149642944336  0.8756619691848755 14.8463764190673828
  1.5949568748474121  5.4256505966186523 10.2871465682983398
  4.7841696739196777  5.4256200790405273 10.2871665954589844
  7.9737515449523926  5.4154324531555176 10.3003778457641602
  0.0009159945184365  1.4035986661911011 17.1206054687500000
  3.1903598308563232  1.4028407335281372 17.1203975677490234
  6.3793034553527832  1.4035358428955078 17.1206130981445312
 -0.0003187274269294  5.9440135955810547 17.1173038482666016
  3.1901047229766846  5.9432401657104492 17.1167888641357422
  6.3793401718139648  5.9439487457275391 17.1171360015869141
  1.5947052240371704  3.6753571033477783 16.5868587493896484
  4.7845129966735840  3.6751561164855957 16.5869903564453125
  7.9738507270812988  3.6750934123992920 16.5872020721435547
  1.5947506427764893  8.2185678482055664 12.0439577102661133
  4.7842664718627930  8.2185878753662109 12.0440282821655273
  7.9737896919250488  8.2189874649047852 12.0435934066772461
  0.0000972161724349  3.1453351974487305 14.3182840347290039
  3.1894690990447998  3.1467764377593994 14.3185234069824219
  6.3788633346557617  3.1451892852783203 14.3181514739990234
  0.0004023562942166  7.6899714469909668 14.3174877166748047
  3.1894235610961914  7.6901407241821289 14.3176765441894531
  6.3787207603454590  7.6896963119506836 14.3172969818115234
  1.5938752889633179  0.8690391778945923 19.3920345306396484
  4.7846717834472656  0.8689829707145691 19.3920307159423828
  7.9735651016235352  0.8690749406814575 19.3915328979492188
  1.5946018695831299  5.4151544570922852 14.8479566574096680
  4.7844090461730957  5.4151172637939453 14.8479270935058594
  7.9737496376037598  5.4150738716125488 14.8476438522338867
  0.0064352131448686  1.4016767740249634 21.6721115112304688
  3.1888718605041504  1.4013682603836060 21.6747150421142578
  6.3762235641479492  1.4065592288970947 21.6696147918701172
 -0.0645428299903870  5.9294810295104980 21.6850643157958984
  3.1253821849822998  5.9293985366821289 21.6850051879882812
  6.3150272369384766  5.9301967620849609 21.6864891052246094
  1.5927993059158325  3.6996874809265137 21.1141033172607422
  4.7808380126953125  3.6973752975463867 21.1156787872314453
  7.9751429557800293  3.6772003173828125 21.1348018646240234
  1.5945727825164795  8.2158060073852539 16.5892181396484375
  4.7843613624572754  8.2156562805175781 16.5895500183105469
  7.9736695289611816  8.2137413024902344 16.5895290374755859
  0.0018912181258202  3.1377568244934082 18.8547592163085938
  3.1914241313934326  3.1383652687072754 18.8552436828613281
  6.3811531066894531  3.1372160911560059 18.8547286987304688
  0.0014660888118669  7.6674122810363770 18.8422203063964844
  3.1894848346710205  7.6705942153930664 18.8433856964111328
  6.3785076141357422  7.6703448295593262 18.8447990417480469
  7.9071884155273438  0.9031429290771484 23.9534339904785156
  1.5955843925476074  5.4127712249755859 19.3890457153320312
  4.7869954109191895  5.4126453399658203 19.3890228271484375
  7.9739956855773926  5.4120721817016602 19.3889217376708984
