Ir O 
 1.0000000000000000
     9.5685205459594727    0.0000000000000000    0.0000000000000000
     0.0000000000000000    9.0898780822753906   -4.5449390411376953
     0.0000000000000000    0.0000000000000000   36.3595123291015625
 Ir  O  
  33  69
Cartesian
  1.5892019271850586  2.2645027637481689 13.4697504043579102
  4.7898879051208496  2.2645282745361328 13.4697551727294922
  7.9738006591796875  2.2533442974090576 13.4636249542236328
  1.9339005947113037  6.7634997367858887  9.2166633605957031
  4.4450941085815430  6.7635145187377930  9.2166185379028320
  7.9737133979797363  6.9503073692321777  8.9873657226562500
  9.5531778335571289  4.4145522117614746 11.0967121124267578
  3.1895272731781006  4.3085589408874512 11.0820217132568359
  6.3943748474121094  4.4145426750183105 11.0966606140136719
  0.0015354605857283  0.0200984477996826 15.7329101562500000
  3.1895165443420410  0.1304888278245926 15.7823619842529297
  6.3774952888488770  0.0200969018042088 15.7329092025756836
  1.5920577049255371  2.3225479125976562 18.0469017028808594
  4.7869868278503418  2.3225276470184326 18.0469303131103516
  7.9737796783447266  2.3044207096099854 18.0138339996337891
  1.6005628108978271  6.7822346687316895 13.3766155242919922
  4.7784943580627441  6.7822451591491699 13.3765926361083984
  7.9737896919250488  6.7834491729736328 13.3882951736450195
  0.0006691266898997  4.5535345077514648 15.7120122909545898
  3.1895246505737305  4.5546674728393555 15.7139158248901367
  6.3783793449401855  4.5535402297973633 15.7120304107666016
 -0.0076481187716126  9.0596923828125000 15.6708469390869141
  3.1895072460174561  9.0401668548583984 15.6801824569702148
  6.3866753578186035  9.0596790313720703 15.6708421707153320
  1.6300415992736816  2.2676494121551514 22.3636856079101562
  4.7489504814147949  2.2676107883453369 22.3636989593505859
  7.9737129211425781  2.2336163520812988 22.5594444274902344
  1.5917778015136719  6.8316826820373535 17.9707183837890625
  4.7872300148010254  6.8316831588745117 17.9707393646240234
  7.9737548828125000  6.8429226875305176 17.9670333862304688
  9.5493230819702148  4.6710257530212402 20.3386631011962891
  3.1894657611846924  4.7108359336853027 20.3532257080078125
  6.3981237411499023  4.6710348129272461 20.3386573791503906
  0.0023577793035656  1.3980226516723633 12.6604213714599609
  3.1895565986633301  1.4105496406555176 12.6596345901489258
  6.3767385482788086  1.3979648351669312 12.6604881286621094
  0.0077485884539783  5.9208545684814453 12.4915246963500977
  3.1895070075988770  5.8992333412170410 12.4570693969726562
  6.3713154792785645  5.9209046363830566 12.4914560317993164
  1.5778735876083374  3.6539430618286133 12.0773067474365234
  4.8011870384216309  3.6539320945739746 12.0772571563720703
  7.9737792015075684  3.7105841636657715 12.1182880401611328
  7.9736156463623047  7.2959070205688477  7.3008980751037598
  9.4673614501953125  3.0901899337768555  9.8830490112304688
  3.1894807815551758  2.9340026378631592  9.9217081069946289
  6.4802770614624023  3.0900945663452148  9.8830995559692383
  0.0499729402363300  7.6164197921752930  9.8206043243408203
  3.1894624233245850  8.1720218658447266  9.5821256637573242
  6.3289780616760254  7.6165213584899902  9.8205604553222656
  1.5755207538604736  0.9833523631095886 14.9460010528564453
  4.8035368919372559  0.9833777546882629 14.9460182189941406
  7.9737882614135742  0.8804688453674316 14.8705511093139648
  1.5978400707244873  5.1409988403320312 10.1132307052612305
  4.7811970710754395  5.1410002708435059 10.1131839752197266
  7.9737582206726074  5.4160737991333008 10.2631025314331055
  0.0013261970598251  1.4374942779541016 17.1467342376708984
  3.1895198822021484  1.4436882734298706 17.2356452941894531
  6.3777375221252441  1.4374781847000122 17.1467647552490234
  9.5668230056762695  5.9453892707824707 17.1093444824218750
  3.1894958019256592  5.9400897026062012 17.1133079528808594
  6.3807110786437988  5.9453563690185547 17.1093883514404297
  1.5959392786026001  3.7050940990447998 16.6179771423339844
  4.7831158638000488  3.7050971984863281 16.6180248260498047
  7.9737691879272461  3.6968755722045898 16.6054229736328125
  1.6074106693267822  8.2408504486083984 12.0310554504394531
  4.7716159820556641  8.2408590316772461 12.0310316085815430
  7.9737629890441895  8.1994714736938477 12.0141353607177734
  9.5630340576171875  3.1552720069885254 14.3214044570922852
  3.1895372867584229  3.1595032215118408 14.3233785629272461
  6.3845810890197754  3.1552743911743164 14.3214206695556641
  0.0055358679965138  7.6497111320495605 14.2607421875000000
  3.1895298957824707  7.6691317558288574 14.2274513244628906
  6.3735413551330566  7.6497077941894531 14.2607355117797852
  1.6012587547302246  0.8813906311988831 19.4053916931152344
  4.7777762413024902  0.8813618421554565 19.4054069519042969
  7.9737529754638672  0.8663699030876160 19.3657474517822266
  1.5971963405609131  5.3998026847839355 14.8048524856567383
  4.7818865776062012  5.3998150825500488 14.8048534393310547
  7.9737668037414551  5.4065217971801758 14.8163394927978516
 -0.0008826960693114  1.4127448797225952 21.5990638732910156
  3.1894567012786865  1.0407269001007080 21.8348579406738281
  6.3798785209655762  1.4126996994018555 21.5990638732910156
  9.4890565872192383  5.9563021659851074 21.5893478393554688
  3.1894743442535400  6.0333213806152344 21.5688858032226562
  6.4583182334899902  5.9563660621643066 21.5892963409423828
  1.5730550289154053  3.8306355476379395 21.2223567962646484
  4.8058886528015137  3.8306252956390381 21.2223052978515625
  7.9737186431884766  3.6745431423187256 21.1442222595214844
  1.5772215127944946  8.1447925567626953 16.5038108825683594
  4.8018064498901367  8.1447772979736328 16.5038070678710938
  7.9737744331359863  8.1842670440673828 16.5268745422363281
 -0.0065855346620083  3.1836111545562744 18.9099788665771484
  3.1894907951354980  3.1907756328582764 18.9566955566406250
  6.3856225013732910  3.1835811138153076 18.9100074768066406
  0.0005640643066727  7.7018070220947266 18.7739391326904297
  3.1894867420196533  7.6772389411926270 18.7889041900634766
  6.3784461021423340  7.7018074989318848 18.7739257812500000
  7.9736919403076172  2.1431930065155029 24.2781295776367188
  1.5832717418670654  5.4423370361328125 19.3790893554687500
  4.7956876754760742  5.4423222541809082 19.3790721893310547
  7.9737234115600586  5.4218196868896484 19.3441143035888672
  3.1894917488098145  2.9192073345184326 23.2821159362792969
