Ir O 
 1.0000000000000000
     9.5685205459594727    0.0000000000000000    0.0000000000000000
     0.0000000000000000    9.0898780822753906   -4.5449390411376953
     0.0000000000000000    0.0000000000000000   36.3595123291015625
 Ir  O  
  33  69
Cartesian
  1.5929664373397827  2.2529795169830322 13.4240226745605469
  4.7860321998596191  2.2530262470245361 13.4240303039550781
  7.9737811088562012  2.2505848407745361 13.4248752593994141
  1.5952498912811279  6.8107824325561523  8.9534454345703125
  4.7837367057800293  6.8109264373779297  8.9526414871215820
  7.9738020896911621  6.9274039268493652  8.8498382568359375
 -0.0058184261433780  4.4634900093078613 11.0947332382202148
  3.1894695758819580  4.4688429832458496 11.0941953659057617
  6.3848710060119629  4.4634532928466797 11.0947551727294922
 -0.0023478278890252 -0.0042476090602577 15.7154169082641602
  3.1895298957824707 -0.0051209647208452 15.7177572250366211
  6.3813366889953613 -0.0043038753792644 15.7154369354248047
  1.5951818227767944  2.2684724330902100 17.9856700897216797
  4.7838125228881836  2.2684834003448486 17.9856853485107422
  7.9737882614135742  2.2686843872070312 17.9850330352783203
  1.5948442220687866  6.8209533691406250 13.4496278762817383
  4.7841563224792480  6.8209414482116699 13.4496717453002930
  7.9737768173217773  6.8202023506164551 13.4505462646484375
  0.0002850462333299  4.5447840690612793 15.7180919647216797
  3.1894581317901611  4.5451617240905762 15.7181367874145508
  6.3787779808044434  4.5448226928710938 15.7181282043457031
 -0.0109527036547661  0.0027613232377917 20.2675838470458984
  3.1895115375518799  0.0121717099100351 20.2713184356689453
  6.3899512290954590  0.0027682315558195 20.2675914764404297
  1.5939517021179199  2.3079364299774170 22.5159168243408203
  4.7850728034973145  2.3079297542572021 22.5159244537353516
  7.9737582206726074  2.1668980121612549 22.5907630920410156
  1.5932012796401978  6.8359746932983398 18.0121192932128906
  4.7859301567077637  6.8360815048217773 18.0122394561767578
  7.9736599922180176  6.8377795219421387 18.0119304656982422
 -0.0058856927789748  4.6275463104248047 20.3428134918212891
  3.1895275115966797  4.6243224143981934 20.3436450958251953
  6.3848743438720703  4.6275634765625000 20.3428306579589844
  0.0014678111765534  1.4189130067825317 12.5918588638305664
  3.1894803047180176  1.4155681133270264 12.5919809341430664
  6.3775734901428223  1.4189088344573975 12.5918617248535156
 -0.0001699369313428  5.9544863700866699 12.5819187164306641
  3.1895017623901367  5.9538831710815430 12.5810279846191406
  6.3791918754577637  5.9544944763183594 12.5819053649902344
  1.5964542627334595  3.6797678470611572 12.0551748275756836
  4.7825379371643066  3.6798005104064941 12.0551280975341797
  7.9737849235534668  3.6783504486083984 12.0574169158935547
  7.9737510681152344  8.1337127685546875  7.5569548606872559
 -0.0001773046969902  3.2019717693328857  9.8259029388427734
  3.1895103454589844  3.2014849185943604  9.8260269165039062
  6.3791875839233398  3.2019481658935547  9.8258600234985352
  0.0070275045000017  7.6819491386413574  9.7581701278686523
  3.1891913414001465  7.6913008689880371  9.7430772781372070
  6.3723230361938477  7.6820802688598633  9.7582178115844727
  1.5942342281341553  0.8748538494110107 14.8453845977783203
  4.7847547531127930  0.8748283386230469 14.8453912734985352
  7.9737873077392578  0.8762298822402954 14.8456029891967773
  1.5945802927017212  5.4257040023803711 10.2870616912841797
  4.7844376564025879  5.4254803657531738 10.2872810363769531
  7.9737582206726074  5.4154334068298340 10.2999095916748047
  0.0001521394879092  1.4030222892761230 17.1200656890869141
  3.1894602775573730  1.4041596651077271 17.1202487945556641
  6.3789091110229492  1.4030817747116089 17.1201381683349609
  0.0000582722932450  5.9437494277954102 17.1169452667236328
  3.1895611286163330  5.9433565139770508 17.1172351837158203
  6.3789014816284180  5.9438271522521973 17.1170349121093750
  1.5941817760467529  3.6744115352630615 16.5886173248291016
  4.7848234176635742  3.6744225025177002 16.5886135101318359
  7.9737763404846191  3.6743111610412598 16.5883121490478516
  1.5947097539901733  8.2177724838256836 12.0440549850463867
  4.7842941284179688  8.2177820205688477 12.0440187454223633
  7.9737772941589355  8.2187967300415039 12.0435371398925781
 -0.0000926232823986  3.1460790634155273 14.3185358047485352
  3.1894929409027100  3.1466460227966309 14.3185729980468750
  6.3791213035583496  3.1460688114166260 14.3185291290283203
  0.0035317412111908  7.6870594024658203 14.3153324127197266
  3.1894862651824951  7.6844296455383301 14.3136844635009766
  6.3755049705505371  7.6870527267456055 14.3153228759765625
  1.5953236818313599  0.8709006905555725 19.3904037475585938
  4.7836775779724121  0.8708782792091370 19.3904228210449219
  7.9737815856933594  0.8702454566955566 19.3926620483398438
  1.5946207046508789  5.4157247543334961 14.8472490310668945
  4.7843780517578125  5.4157071113586426 14.8472690582275391
  7.9737820625305176  5.4155321121215820 14.8477239608764648
  0.0255427844822407  1.4079477787017822 21.6737995147705078
  3.1894938945770264  1.3756729364395142 21.6636638641357422
  6.3534927368164062  1.4079638719558716 21.6738224029541016
 -0.0005034955684096  5.8888278007507324 21.6094970703125000
  3.1894965171813965  5.8899235725402832 21.6089706420898438
  6.3795280456542969  5.8888564109802246 21.6095027923583984
  1.5865224599838257  3.6630678176879883 21.1358737945556641
  4.7924919128417969  3.6630728244781494 21.1358661651611328
  7.9737687110900879  3.6748931407928467 21.1358509063720703
  1.5946424007415771  8.2160348892211914 16.5893650054931641
  4.7843551635742188  8.2159690856933594 16.5894165039062500
  7.9737863540649414  8.2152471542358398 16.5893669128417969
 -0.0000261220629909  3.1353507041931152 18.8539295196533203
  3.1894991397857666  3.1355371475219727 18.8541946411132812
  6.3790493011474609  3.1353549957275391 18.8539237976074219
  0.0015039801364765  7.6706357002258301 18.8436260223388672
  3.1895794868469238  7.6739354133605957 18.8435211181640625
  6.3774394989013672  7.6706438064575195 18.8436489105224609
  7.9737625122070312  0.9557124376296997 23.8794460296630859
  1.5966292619705200  5.4099617004394531 19.3808975219726562
  4.7823791503906250  5.4100227355957031 19.3808403015136719
  7.9737706184387207  5.4118475914001465 19.3779468536376953
  3.1894967555999756  3.0999894142150879 23.3900089263916016
