Ir O 
 1.0000000000000000
    12.8550291061401367    0.0000000000000000    0.0000000000000000
     6.4275140762329102    6.4275140762329102    3.1895070075988770
     0.0000000000000000    0.0000000000000000   38.2740821838378906
 Ir  O  
  28  46
Cartesian
  3.2145507335662842 -0.0417513959109783 13.8873548507690430
  9.6406984329223633 -0.0416718870401382 13.8873958587646484
  6.4277014732360840  3.1317698955535889 16.9364948272705078
 12.8551998138427734  3.2574176788330078 16.7976264953613281
  3.2089917659759521  3.2061550617218018 15.4896574020385742
  9.6461067199707031  3.2058193683624268 15.4895744323730469
 -0.0001088243298000  0.0836815387010574 15.4530658721923828
  6.4275031089782715  0.0715368166565895 15.4263429641723633
  3.2154481410980225  0.0067721572704613 16.9760646820068359
  9.6394405364990234  0.0066443784162402 16.9757308959960938
  6.4275112152099609  3.2137639522552490 20.2002029418945312
 12.8550357818603516  3.2137629985809326 20.2001972198486328
  3.2133445739746094  3.2184169292449951 18.5700607299804688
  9.6415758132934570  3.2181901931762695 18.5696811676025391
 -0.0000529628123331  0.0012032305821776 18.6323013305664062
  6.4275684356689453 -0.0012188494438305 18.5786190032958984
  3.2120592594146729 -0.0067758853547275 20.2348423004150391
  9.6431131362915039 -0.0066598043777049 20.2352123260498047
  6.4273180961608887  3.2957112789154053 23.4639625549316406
 12.8548603057861328  3.1702003479003906 23.6027393341064453
  3.2134497165679932  3.2093417644500732 21.8307151794433594
  9.6416845321655273  3.2090976238250732 21.8303508758544922
 -0.0000069361508395 -0.0715334713459015 21.7847232818603516
  6.4276361465454102 -0.0836662426590919 21.7579555511474609
  3.2129683494567871  0.0417325645685196 23.3236312866210938
  9.6418437957763672  0.0416427701711655 23.3235855102539062
  3.2089095115661621  3.2216725349426270 24.9108943939208984
  9.6460523605346680  3.2213990688323975 24.9107303619384766
  6.4274735450744629  1.9676772356033325 15.4355916976928711
 12.8550643920898438  1.9010851383209229 15.4130563735961914
  4.4660472869873047  3.2347686290740967 17.0073509216308594
 10.8896064758300781  3.2348606586456299 17.0241699218750000
  3.2141983509063721  1.2331827878952026 15.3625335693359375
  9.6405076980590820  1.2332948446273804 15.3626642227172852
 12.8549890518188477  4.4010519981384277 15.5325450897216797
  8.3889656066894531  3.2349283695220947 17.0077915191650391
 14.8204755783081055  3.2345092296600342 17.0243663787841797
  9.6414470672607422  5.2028317451477051 18.5851974487304688
 16.0687255859375000  5.2028326988220215 18.5851993560791016
  6.4274659156799316  1.9835612773895264 18.6325263977050781
 12.8550310134887695  1.9660120010375977 18.6168785095214844
  1.2404727935791016 -0.0048828539438546 17.0186672210693359
  7.6700387001037598 -0.0030641886405647 17.0265712738037109
  4.4431953430175781  3.2135965824127197 20.1999778747558594
 10.8666095733642578  3.2137205600738525 20.2000446319580078
  3.2128281593322754  1.2344696521759033 18.6092891693115234
  9.6423139572143555  1.2344251871109009 18.6093673706054688
  6.4275383949279785  4.4635415077209473 18.5837059020996094
 12.8550472259521484  4.4686837196350098 18.5952243804931641
  5.1850275993347168 -0.0029792170971632 17.0265178680419922
 11.6147670745849609 -0.0046409224160016 17.0186843872070312
  8.4118337631225586  3.2139050960540771 20.2004737854003906
 14.8434429168701172  3.2137832641601562 20.2004222869873047
  9.6422023773193359  5.1930570602416992 21.7911567687988281
 16.0677433013916016  5.1931009292602539 21.7911376953125000
  6.4274868965148926  1.9640059471130371 21.8166961669921875
 12.8550071716308594  1.9588258266448975 21.8052024841308594
  1.2425014972686768  0.0029724037740380 20.1843109130859375
  7.6678423881530762  0.0046416935510933 20.1921520233154297
  4.4660830497741699  3.1925978660583496 23.3925952911376953
 10.8895816802978516  3.1930077075958252 23.3760356903076172
  3.2135779857635498  1.2246884107589722 21.8151931762695312
  9.6413326263427734  1.2246673107147217 21.8151435852050781
  6.4275622367858887  4.4439992904663086 21.7678394317626953
 12.8550395965576172  4.4615139961242676 21.7834949493408203
  5.1870393753051758  0.0048853605985641 20.1921730041503906
 11.6124362945556641  0.0030606535729021 20.1842555999755859
  8.3889818191528320  3.1927602291107178 23.3930549621582031
 14.8204326629638672  3.1926617622375488 23.3761997222900391
  9.6408300399780273  5.1942977905273438 25.0378456115722656
 16.0695533752441406  5.1942448616027832 25.0376720428466797
 12.8550605773925781  2.0264265537261963 24.8679409027099609
  6.4275598526000977  4.4597849845886230 24.9648971557617188
 12.8549814224243164  4.5263543128967285 24.9873886108398438
