Ir O 
 1.0000000000000000
    12.8550291061401367    0.0000000000000000    0.0000000000000000
     6.4275140762329102    6.4275140762329102    3.1895070075988770
     0.0000000000000000    0.0000000000000000   38.2740821838378906
 Ir  O  
  28  46
Cartesian
  4.6704978942871094 -0.5654036402702332 13.8887987136840820
  8.1844797134399414 -0.5628703236579895 13.8886699676513672
  6.4279165267944336  3.1150391101837158 17.0151367187500000
 12.8566827774047852  3.2980005741119385 16.9728755950927734
  3.3442239761352539  2.1860466003417969 15.5705909729003906
  9.5128507614135742  2.1874718666076660 15.5710897445678711
  0.0019480389310047  0.1564486473798752 15.5068454742431641
  6.4277501106262207  0.0003886074991897 15.5378074645996094
  3.2316162586212158  0.1075278744101524 16.9866390228271484
  9.6250305175781250  0.1077642813324928 16.9861621856689453
  6.4275345802307129  3.2137062549591064 20.2001800537109375
 12.8550338745117188  3.2135126590728760 20.2004852294921875
  3.2153096199035645  3.2673773765563965 18.5796070098876953
  9.6399536132812500  3.2673671245574951 18.5790214538574219
 -0.0004257580148987 -0.0071354405954480 18.5502834320068359
  6.4279656410217285  0.0071623073890805 18.6606521606445312
  3.1960165500640869 -0.1074662357568741 20.2242507934570312
  9.6575231552124023 -0.1078364625573158 20.2248725891113281
  6.4271445274353027  3.3125069141387939 23.3853588104248047
 12.8531122207641602  3.1296024322509766 23.4273738861083984
  3.2150952816009521  3.1600916385650635 21.8213195800781250
  9.6397237777709961  3.1601755619049072 21.8208808898925781
 -0.0001324067707174 -0.0003469572111499 21.6731185913085938
  6.4255900382995605 -0.1564574539661407 21.7039909362792969
  1.7571133375167847  0.5656451582908630 23.3220462799072266
 11.0982398986816406  0.5624186396598816 23.3223476409912109
  3.3421049118041992  4.2399411201477051 24.8293418884277344
  9.5108003616333008  4.2416367530822754 24.8298702239990234
  6.4270877838134766  1.9303722381591797 15.5074100494384766
 12.8569917678833008  2.0450644493103027 15.4306764602661133
  4.4332599639892578  3.2122144699096680 16.9313850402832031
 10.8196792602539062  3.3626239299774170 16.8896617889404297
  3.8816862106323242  1.2122991085052490 14.0869903564453125
  8.9762582778930664  1.2132031917572021 14.0875978469848633
 12.8553876876831055  5.4508647918701172 16.0887718200683594
  8.4231243133544922  3.2117493152618408 16.9318046569824219
 14.8931055068969727  3.3590114116668701 16.8896694183349609
  9.7960729598999023  5.3017516136169434 18.5212516784667969
 15.9123287200927734  5.3022513389587402 18.5204544067382812
  6.4307184219360352  1.9987648725509644 18.6550712585449219
 12.8560495376586914  1.9852011203765869 18.5143775939941406
  1.2838307619094849 -0.0630780830979347 16.9963474273681641
  7.6873893737792969  0.0554841645061970 17.1180725097656250
  4.4461498260498047  3.2136042118072510 20.2002754211425781
 10.8600921630859375  3.2130005359649658 20.2002525329589844
  3.1865158081054688  1.2818180322647095 18.6085586547851562
  9.6702499389648438  1.2817151546478271 18.6086540222167969
  6.4283308982849121  4.5068936347961426 18.5705490112304688
 12.8557987213134766  4.4422063827514648 18.6818923950195312
  5.1687045097351074  0.0541897937655449 17.1174144744873047
 11.5718898773193359 -0.0627680793404579 16.9951019287109375
  8.4089221954345703  3.2138299942016602 20.2002086639404297
 14.8499603271484375  3.2144858837127686 20.2001457214355469
  9.6684093475341797  5.1457386016845703 21.7917613983154297
 16.0397510528564453  5.1457681655883789 21.7918319702148438
  6.4267458915710449  1.9205005168914795 21.8298988342285156
 12.8540859222412109  1.9855861663818359 21.7182826995849609
  1.2588461637496948 -0.0540326386690140 20.0935688018798828
  7.7106103897094727  0.0626271218061447 20.2158374786376953
  4.4318637847900391  3.2155656814575195 23.4686851501464844
 10.8167524337768555  3.0694410800933838 23.5107002258300781
  3.0591740608215332  1.1258350610733032 21.8790912628173828
  9.7979402542114258  1.1251792907714844 21.8801078796386719
  6.4242854118347168  4.4288015365600586 21.7454223632812500
 12.8541154861450195  4.4424104690551758 21.8858699798583984
  5.1438164710998535  0.0628388449549675 20.2145709991455078
 11.5951509475708008 -0.0554072260856628 20.0929145812988281
  8.4217996597290039  3.2153320312500000 23.4691219329833984
 14.8900594711303711  3.0642786026000977 23.5106048583984375
  8.9732799530029297  5.2153835296630859 26.3134136199951172
 16.7336654663085938  5.2139458656311035 26.3129234313964844
 12.8546485900878906  0.9767095446586609 24.3115024566650391
  6.4280605316162109  4.4971818923950195 24.8928966522216797
 12.8530054092407227  4.3826122283935547 24.9696922302246094
