Ir O 
 1.0000000000000000
     9.0898780822753906    0.0000000000000000   -4.5449390411376953
     9.0898780822753906    6.3790140151977539    0.0000000000000000
     0.0000000000000000    0.0000000000000000   40.9044494628906250
 Ir  O  
  20  44
Cartesian
  6.8069558143615723  1.6420928239822388 15.5189065933227539
 11.3462686538696289  4.8399791717529297 15.5073204040527344
  2.3356554508209229  1.5806667804718018 15.5257329940795898
  6.8789510726928711  4.7653374671936035 15.5301475524902344
  4.5215930938720703  3.1939406394958496 17.7638053894042969
 -0.0220438633114100  0.0051505435258150 17.7672023773193359
  9.0749473571777344  3.2185666561126709 13.3191528320312500
  4.4254407882690430  0.0276960209012032 13.2220325469970703
  6.8233976364135742  1.5612915754318237 20.0874462127685547
 11.3773145675659180  4.7315921783447266 20.0913181304931641
  2.2712712287902832  1.5902602672576904 20.0733661651611328
  6.8171896934509277  4.7843751907348633 20.0732402801513672
  4.5739512443542480  3.1837599277496338 22.3731136322021484
  0.0248154569417238 -0.0035670171491802 22.3830890655517578
  9.0915021896362305  3.1911618709564209 17.8012237548828125
  4.5434832572937012 -0.0009882368613034 17.8023796081542969
  2.2085824012756348  1.6090508699417114 24.6224937438964844
  6.7498660087585449  4.8121719360351562 24.6242389678955078
  9.2098102569580078  3.1643514633178711 22.3788986206054688
  4.5403509140014648 -0.0605781786143780 22.3134021759033203
  3.2097213268280029  0.0057303956709802 11.9071083068847656
 12.2273588180541992  3.1637113094329834 11.8555822372436523
  7.6834907531738281 -0.0217996425926685 11.8551101684570312
  9.9505386352539062  1.6010637283325195 12.3781089782714844
 14.5093002319335938  4.7819647789001465 12.3838720321655273
  5.9614028930664062  3.1910166740417480 14.6705284118652344
  1.4161587953567505 -0.0015758078079671 14.6738653182983398
 10.4951877593994141  3.1929714679718018 14.6516389846801758
  5.9541110992431641  0.0024306594859809 14.6589241027832031
  8.2153158187866211  1.5885515213012695 14.1173658370971680
 12.7712850570678711  4.7733292579650879 14.1336889266967773
  3.6674153804779053  1.5700405836105347 14.1291246414184570
  8.2031221389770508  4.7511081695556641 14.1109428405761719
  7.6844530105590820  3.1905300617218018 16.3971271514892578
  3.1424512863159180 -0.0031245686113834 16.4010658264160156
 12.2325105667114258  3.1825883388519287 16.4000072479248047
  7.6884198188781738 -0.0076536685228348 16.3997364044189453
  5.4184799194335938  1.5910056829452515 16.9311294555664062
  9.9630594253540039  4.7792587280273438 16.9324073791503906
  9.9614496231079102  1.5942355394363403 16.9271392822265625
 14.5055837631225586  4.7840595245361328 16.9284286499023438
  5.9472179412841797  3.1975398063659668 19.2035865783691406
  1.4020807743072510  0.0073717162013054 19.2026157379150391
 10.4930381774902344  3.1916689872741699 19.2024631500244141
  5.9535751342773438 -0.0018444281304255 19.2029533386230469
  8.2164449691772461  1.5932445526123047 18.6698627471923828
 12.7599964141845703  4.7889785766601562 18.6709575653076172
  3.6730933189392090  1.5951576232910156 18.6738510131835938
  8.2183570861816406  4.7841429710388184 18.6741771697998047
  7.6802163124084473  3.1854434013366699 20.9419441223144531
  3.1397593021392822  0.0048999120481312 20.9405269622802734
 12.2177696228027344  3.1876873970031738 20.9252853393554688
  7.6737895011901855 -0.0023193457163870 20.9311523437500000
  5.4270334243774414  1.6084722280502319 21.4761772155761719
  9.9530286788940430  4.7931475639343262 21.4695186614990234
  9.9677743911743164  1.6196663379669189 21.4724063873291016
 14.5391578674316406  4.8070816993713379 21.4687156677246094
  5.9508109092712402  3.2120280265808105 23.7461357116699219
  1.4043802022933960  0.0291009973734617 23.7473621368408203
 10.4236440658569336  3.1823701858520508 23.6952266693115234
  3.6842701435089111  1.5904819965362549 23.2215690612792969
  8.2164039611816406  4.7836680412292480 23.2163448333740234
 12.6987619400024414  4.7954530715942383 23.1237220764160156
 13.4348983764648438  4.7866473197937012 24.3696327209472656
