Ir O 
 1.0000000000000000
     9.0898780822753906    0.0000000000000000   -4.5449390411376953
     9.0898780822753906    6.3790140151977539    0.0000000000000000
     0.0000000000000000    0.0000000000000000   40.9044494628906250
 Ir  O  
  20  44
Cartesian
  6.7533788681030273  1.5858532190322876 15.5020380020141602
 11.3679714202880859  4.7872724533081055 15.5406913757324219
  2.3385925292968750  1.5380265712738037 15.6059980392456055
  6.8514156341552734  4.7067174911499023 15.5548629760742188
  4.4907846450805664  3.1999394893646240 17.7744350433349609
 -0.0851516127586365 -0.0185846835374832 17.7120132446289062
  9.0318326950073242  3.1504540443420410 13.4346780776977539
  4.4554886817932129  0.0835627242922783 13.2195281982421875
  6.8086180686950684  1.5724266767501831 20.0705871582031250
 11.3253145217895508  4.7579474449157715 20.0560417175292969
  2.2711620330810547  1.5700563192367554 20.0678672790527344
  6.7870798110961914  4.7658491134643555 20.0614471435546875
  4.5774354934692383  3.1435236930847168 22.3968982696533203
 -0.0080285435542464 -0.0378461815416813 22.3494834899902344
  9.0577573776245117  3.1646525859832764 17.7674407958984375
  4.5329408645629883 -0.0198844075202942 17.8090038299560547
  2.1296565532684326  1.6287040710449219 24.5399856567382812
  6.6845030784606934  4.8375873565673828 24.5938987731933594
  9.1177091598510742  3.0937159061431885 22.3780117034912109
  4.5748081207275391 -0.0825417637825012 22.3647842407226562
  4.2814898490905762  0.7047889232635498 11.6086816787719727
 12.2005357742309570  3.0781219005584717 11.8776674270629883
  7.6474838256835938 -0.1343186199665070 11.7979946136474609
  9.8814640045166016  1.6075938940048218 12.3715753555297852
 14.4414272308349609  4.7818856239318848 12.3644819259643555
  5.9089479446411133  3.1775233745574951 14.7204895019531250
  1.4502035379409790 -0.0091800391674042 14.7324123382568359
 10.6289291381835938  3.1960206031799316 14.5518026351928711
  5.8140349388122559 -0.0216965582221746 14.7028255462646484
  8.0084543228149414  1.5498979091644287 13.9638166427612305
 12.7965574264526367  4.7995743751525879 14.1704397201538086
  3.6318368911743164  1.4714548587799072 14.2180919647216797
  8.1038742065429688  4.6272263526916504 14.0992355346679688
  7.7045068740844727  3.1141312122344971 16.3494338989257812
  3.0327675342559814 -0.0668300613760948 16.5618381500244141
 12.2364244461059570  3.1398627758026123 16.4300022125244141
  7.6610574722290039 -0.0301846656948328 16.3753032684326172
  5.3792519569396973  1.5909771919250488 16.9298725128173828
  9.9217729568481445  4.7608304023742676 16.8873786926269531
  9.9364252090454102  1.5673742294311523 16.8947925567626953
 14.4921674728393555  4.7515149116516113 16.9342594146728516
  5.9320015907287598  3.1900341510772705 19.1789836883544922
  1.3543058633804321  0.0131417894735932 19.1620979309082031
 10.4805440902709961  3.2313232421875000 19.1036243438720703
  5.9859280586242676  0.0304853077977896 19.1147403717041016
  8.2017536163330078  1.5702230930328369 18.6516551971435547
 12.7659711837768555  4.7494363784790039 18.6946926116943359
  3.6845023632049561  1.5783237218856812 18.6886501312255859
  8.1607770919799805  4.7670049667358398 18.6240730285644531
  7.7414035797119141  3.1736681461334229 20.8953552246093750
  3.1287970542907715 -0.0398444049060345 20.9344253540039062
 12.1267194747924805  3.1596677303314209 20.8720436096191406
  7.6258778572082520 -0.0170997120440006 20.8814449310302734
  5.4183378219604492  1.5617164373397827 21.4695930480957031
  9.8929748535156250  4.7534012794494629 21.4265060424804688
  9.9328842163085938  1.6905608177185059 21.3896884918212891
 14.5576124191284180  4.8227648735046387 21.4843673706054688
  5.9333839416503906  3.2813987731933594 23.7638397216796875
  1.3491265773773193  0.0930208265781403 23.7223224639892578
  9.3283786773681641  2.4944033622741699 23.9897441864013672
  3.6792037487030029  1.5424902439117432 23.2512359619140625
  8.1984195709228516  4.7610421180725098 23.2119483947753906
 13.3651790618896484  5.0083503723144531 23.9072818756103516
 14.4686546325683594  5.7863297462463379 24.1072006225585938
