H  Ir O 
 1.0000000000000000
     9.5685205459594727    0.0000000000000000    0.0000000000000000
     0.0000000000000000    9.0898780822753906   -4.5449390411376953
     0.0000000000000000    0.0000000000000000   36.3595123291015625
 H   Ir  O  
   3  33  71
Cartesian
  2.6800789833068848  0.2504872083663940 23.8210086822509766
  6.3611598014831543  2.8383023738861084 24.3497772216796875
  3.0909183025360107  5.9496273994445801 23.6296405792236328
  1.5829013586044312  2.2768492698669434 13.4610662460327148
  4.7823576927185059  2.2785956859588623 13.4610414505004883
  7.9666790962219238  2.2628054618835449 13.4495534896850586
  1.9255837202072144  6.7586050033569336  9.1848850250244141
  4.4376921653747559  6.7582392692565918  9.1839809417724609
  7.9669609069824219  6.9396967887878418  8.9700994491577148
  9.5461721420288086  4.4234580993652344 11.0886583328247070
  3.1826469898223877  4.3165769577026367 11.0666933059692383
  6.3880944252014160  4.4226179122924805 11.0863609313964844
 -0.0058874152600765  0.0094562908634543 15.7082986831665039
  3.1823489665985107  0.1190115883946419 15.7503881454467773
  6.3706698417663574  0.0110858334228396 15.7079124450683594
  1.5802980661392212  2.3033938407897949 18.0044670104980469
  4.7879705429077148  2.3066146373748779 18.0059013366699219
  7.9656419754028320  2.2905192375183105 17.9928321838378906
  1.5947641134262085  6.7867932319641113 13.3700494766235352
  4.7734904289245605  6.7868847846984863 13.3680095672607422
  7.9648766517639160  6.7885231971740723 13.3843708038330078
  9.5578126907348633  4.5558490753173828 15.7026176452636719
  3.1801671981811523  4.5659542083740234 15.7138261795043945
  6.3682351112365723  4.5583872795104980 15.7063770294189453
  0.0060294121503830  9.0529689788818359 15.6679410934448242
  3.1962487697601318  9.0257558822631836 15.6362514495849609
  6.3906445503234863  9.0629587173461914 15.6790418624877930
  1.6965458393096924  2.0732600688934326 22.4491157531738281
  4.7759089469909668  2.2486491203308105 22.3575592041015625
  8.0876188278198242  2.2156231403350830 22.5439643859863281
  1.5707101821899414  6.8210873603820801 17.9890213012695312
  4.7784204483032227  6.8345322608947754 17.9933128356933594
  7.9634189605712891  6.8252115249633789 17.9777030944824219
  9.5459146499633789  4.5990242958068848 20.3446598052978516
  3.1491956710815430  4.5925464630126953 20.3143520355224609
  6.3682765960693359  4.6413183212280273 20.3383502960205078
  0.0001279311254621  1.4204483032226562 12.6360645294189453
  3.1840829849243164  1.4290555715560913 12.6496868133544922
  6.3653998374938965  1.4206720590591431 12.6369209289550781
  0.0037449277006090  5.9253892898559570 12.4882268905639648
  3.1826925277709961  5.9069371223449707 12.4449424743652344
  6.3626198768615723  5.9236278533935547 12.4867486953735352
  1.5745288133621216  3.6741223335266113 12.0750217437744141
  4.7907881736755371  3.6728496551513672 12.0723886489868164
  7.9665613174438477  3.7247903347015381 12.1078777313232422
  7.9707651138305664  7.2779011726379395  7.2813944816589355
  9.4643955230712891  3.0995349884033203  9.8733091354370117
  3.1806585788726807  2.9350638389587402  9.9173364639282227
  6.4671230316162109  3.0985622406005859  9.8713455200195312
  0.0452564246952534  7.6075315475463867  9.7977552413940430
  3.1821694374084473  8.1674995422363281  9.5467720031738281
  6.3198938369750977  7.6096477508544922  9.7938213348388672
  1.5692884922027588  0.9708999395370483 14.9173736572265625
  4.7949018478393555  0.9727780818939209 14.9183368682861328
  7.9670720100402832  0.8651691079139709 14.8392295837402344
  1.5913091897964478  5.1427273750305176 10.0870056152343750
  4.7731437683105469  5.1422038078308105 10.0846166610717773
  7.9670739173889160  5.4200363159179688 10.2582674026489258
  9.5591535568237305  1.4198393821716309 17.1221332550048828
  3.1837677955627441  1.4197404384613037 17.2052631378173828
  6.3741126060485840  1.4245463609695435 17.1218032836914062
  9.5572853088378906  5.9303860664367676 17.1191501617431641
  3.1794986724853516  5.9423699378967285 17.1378993988037109
  6.3617715835571289  5.9321260452270508 17.1308116912841797
  1.5845822095870972  3.6981461048126221 16.5911998748779297
  4.7747898101806641  3.6997146606445312 16.5940246582031250
  7.9626331329345703  3.6867666244506836 16.5841197967529297
  1.6017552614212036  8.2315893173217773 12.0080575942993164
  4.7647104263305664  8.2307949066162109 12.0048532485961914
  7.9667701721191406  8.1888103485107422 11.9915876388549805
  9.5530385971069336  3.1608679294586182 14.3107662200927734
  3.1810276508331299  3.1734392642974854 14.3159427642822266
  6.3795204162597656  3.1613094806671143 14.3126029968261719
 -0.0036039834376425  7.6629838943481445 14.2534866333007812
  3.1875274181365967  7.6406602859497070 14.2402544021606445
  6.3691668510437012  7.6637568473815918 14.2445516586303711
  1.5969270467758179  0.8562384247779846 19.3638610839843750
  4.8006830215454102  0.8619936704635620 19.3628845214843750
  7.9767136573791504  0.8684271574020386 19.3699016571044922
  1.5862780809402466  5.4161672592163086 14.8109292984008789
  4.7745075225830078  5.4156432151794434 14.8104009628295898
  7.9636855125427246  5.4189028739929199 14.8177556991577148
  0.0327190794050694  1.3706612586975098 21.6404533386230469
  3.2808990478515625  1.2960871458053589 21.5898399353027344
  6.4279093742370605  1.2531557083129883 21.7385082244873047
  9.5168294906616211  5.7914786338806152 21.6873035430908203
  3.0873456001281738  5.8990521430969238 21.7457561492919922
  6.4436569213867188  5.8895344734191895 21.6289043426513672
  1.5828961133956909  3.6136672496795654 21.1188869476318359
  4.7527551651000977  3.7773809432983398 21.1798782348632812
  7.9425220489501953  3.5919489860534668 21.0829696655273438
  1.5945230722427368  8.1564378738403320 16.5252418518066406
  4.7900490760803223  8.1501722335815430 16.5152778625488281
  7.9789438247680664  8.1530561447143555 16.5174579620361328
  9.5525140762329102  3.1701147556304932 18.8632030487060547
  3.1852574348449707  3.1884782314300537 18.8581619262695312
  6.3723897933959961  3.1757140159606934 18.8810882568359375
  9.5480794906616211  7.6713385581970215 18.7961883544921875
  3.1621110439300537  7.7177357673645020 18.8136291503906250
  6.3769721984863281  7.6813826560974121 18.7995281219482422
  8.6366500854492188  1.8875784873962402 24.1793956756591797
  1.5638290643692017  5.4372835159301758 19.4130401611328125
  4.7555770874023438  5.4768395423889160 19.4317092895507812
  7.9675478935241699  5.4081902503967285 19.3827304840087891
  2.1626973152160645  1.1076015233993530 24.0037403106689453
  6.3695363998413086  3.0768947601318359 23.4008502960205078
  3.1389839649200439  5.1919136047363281 23.0091972351074219
