H  Ir O 
 1.0000000000000000
     9.5685205459594727    0.0000000000000000    0.0000000000000000
     0.0000000000000000    9.0898780822753906   -4.5449390411376953
     0.0000000000000000    0.0000000000000000   36.3595123291015625
 H   Ir  O  
   3  33  71
Cartesian
  2.4492962360382080  0.8541368246078491 24.2956619262695312
  6.3892393112182617  2.2428665161132812 23.8709983825683594
  3.4637384414672852  5.2409911155700684 23.3767395019531250
  1.5913401842117310  2.2357354164123535 13.4026527404785156
  4.7876605987548828  2.2366726398468018 13.4015769958496094
  7.9738349914550781  2.2313191890716553 13.4036283493041992
  1.5957859754562378  6.8053307533264160  9.0068111419677734
  4.7832474708557129  6.8047256469726562  9.0075941085815430
  7.9744286537170410  7.0376601219177246  8.7966060638427734
 -0.0117893749848008  4.3836007118225098 11.0157861709594727
  3.1895627975463867  4.3918414115905762 11.0141105651855469
  6.3905172348022461  4.3840351104736328 11.0163707733154297
 -0.0054486985318363 -0.0081226238980889 15.7140417098999023
  3.1896471977233887 -0.0107936849817634 15.7179794311523438
  6.3842573165893555 -0.0075059668160975 15.7143754959106445
  1.5955386161804199  2.2696003913879395 17.9814357757568359
  4.7823700904846191  2.2690358161926270 17.9826602935791016
  7.9744763374328613  2.2670958042144775 17.9821300506591797
  1.5935996770858765  6.8251280784606934 13.4547204971313477
  4.7849020957946777  6.8259878158569336 13.4547100067138672
  7.9735045433044434  6.8236761093139648 13.4563188552856445
  0.0000546362534806  4.5457339286804199 15.7180023193359375
  3.1893982887268066  4.5455713272094727 15.7186813354492188
  6.3790283203125000  4.5459432601928711 15.7182617187500000
  0.0116893835365772  0.0083034215494990 20.2759113311767578
  3.1702301502227783  0.0065897069871426 20.2679653167724609
  6.3829078674316406  0.0204019583761692 20.2829017639160156
  1.6196542978286743  2.1896133422851562 22.5190334320068359
  4.6305704116821289  2.2646272182464600 22.3978137969970703
  8.1420984268188477  2.0856513977050781 22.5811862945556641
  1.5844701528549194  6.8600873947143555 18.0337753295898438
  4.7900767326354980  6.8560605049133301 18.0314407348632812
  7.9790067672729492  6.8644399642944336 18.0329551696777344
 -0.0011154981330037  4.7098665237426758 20.4132804870605469
  3.1400070190429688  4.5771903991699219 20.1591014862060547
  6.3921551704406738  4.7049679756164551 20.4230289459228516
  0.0036371862515807  1.4359686374664307 12.6089887619018555
  3.1895174980163574  1.4282100200653076 12.6094999313354492
  6.3757386207580566  1.4357924461364746 12.6091718673706055
 -0.0003324104181956  5.9620647430419922 12.5896520614624023
  3.1895432472229004  5.9628076553344727 12.5892620086669922
  6.3793792724609375  5.9607234001159668 12.5884962081909180
  1.5987502336502075  3.6853749752044678 12.0663251876831055
  4.7803187370300293  3.6855618953704834 12.0663118362426758
  7.9738903045654297  3.6826460361480713 12.0700359344482422
  7.9733948707580566  8.0484676361083984  7.6138267517089844
 -0.0003814969386440  3.2577581405639648  9.8786687850952148
  3.1894688606262207  3.2577035427093506  9.8785009384155273
  6.3795323371887207  3.2578737735748291  9.8787059783935547
  0.0150492740795016  7.6765952110290527  9.7447299957275391
  3.1897540092468262  7.6942615509033203  9.7139377593994141
  6.3634080886840820  7.6770067214965820  9.7447509765625000
  1.5940735340118408  0.8784187436103821 14.8437557220458984
  4.7846298217773438  0.8775108456611633 14.8442974090576172
  7.9737362861633301  0.8802375793457031 14.8446321487426758
  1.5944930315017700  5.4343976974487305 10.2724924087524414
  4.7847633361816406  5.4346246719360352 10.2720365524291992
  7.9734654426574707  5.4147162437438965 10.2979459762573242
  0.0047062770463526  1.4055682420730591 17.1216030120849609
  3.1891193389892578  1.4043610095977783 17.1209144592285156
  6.3749709129333496  1.4056233167648315 17.1211605072021484
 -0.0008604971226305  5.9411377906799316 17.1142749786376953
  3.1901412010192871  5.9407725334167480 17.1158161163330078
  6.3793721199035645  5.9401359558105469 17.1147785186767578
  1.5937752723693848  3.6755123138427734 16.5860118865966797
  4.7849521636962891  3.6746006011962891 16.5878124237060547
  7.9738621711730957  3.6749601364135742 16.5877475738525391
  1.5952960252761841  8.2164449691772461 12.0445518493652344
  4.7839002609252930  8.2162876129150391 12.0443258285522461
  7.9740533828735352  8.2181196212768555 12.0431394577026367
  0.0001596029323991  3.1481533050537109 14.3208627700805664
  3.1889302730560303  3.1486675739288330 14.3197278976440430
  6.3789854049682617  3.1476867198944092 14.3204498291015625
 -0.0054006646387279  7.6887841224670410 14.3155889511108398
  3.1968252658843994  7.6878733634948730 14.3174629211425781
  6.3785595893859863  7.6806020736694336 14.3096914291381836
  1.5933754444122314  0.8675076961517334 19.3952426910400391
  4.7863674163818359  0.8686367273330688 19.3891258239746094
  7.9721651077270508  0.8679616451263428 19.3890247344970703
  1.5946816205978394  5.4154367446899414 14.8479652404785156
  4.7840356826782227  5.4149541854858398 14.8473567962646484
  7.9741544723510742  5.4146966934204102 14.8475379943847656
 -0.0404362827539444  1.4221168756484985 21.6778850555419922
  3.2275998592376709  1.4156442880630493 21.7004566192626953
  6.3660116195678711  1.3723952770233154 21.6464214324951172
 -0.0019620251841843  5.8332033157348633 21.5581226348876953
  3.1776602268218994  5.9525389671325684 21.5923213958740234
  6.3827743530273438  5.8340148925781250 21.5545539855957031
  1.5914819240570068  3.6678624153137207 21.1456127166748047
  4.8256268501281738  3.6401126384735107 21.0865383148193359
  7.9793987274169922  3.6725549697875977 21.1227874755859375
  1.5944032669067383  8.2113361358642578 16.5886440277099609
  4.7846007347106934  8.2107448577880859 16.5902881622314453
  7.9733319282531738  8.2080059051513672 16.5873584747314453
  0.0001853422581917  3.1279680728912354 18.8459148406982422
  3.1914987564086914  3.1190578937530518 18.8458976745605469
  6.3793225288391113  3.1284019947052002 18.8472766876220703
 -0.0018317976500839  7.6424245834350586 18.8238048553466797
  3.1932997703552246  7.6563620567321777 18.8334274291992188
  6.3750052452087402  7.6533980369567871 18.8274650573730469
  7.9609847068786621  1.0248667001724243 23.8310813903808594
  1.6063494682312012  5.4118061065673828 19.3706073760986328
  4.7773060798645020  5.4068517684936523 19.3732414245605469
  7.9680004119873047  5.4048099517822266 19.3682727813720703
  1.7337197065353394  0.9502238631248474 23.9760742187500000
  6.3759636878967285  3.0542662143707275 23.4996738433837891
  3.5862572193145752  4.9257650375366211 22.7233638763427734
