H  Ir O 
 1.0000000000000000
     9.0898780822753906    0.0000000000000000   -4.5449390411376953
     9.0898780822753906    6.3790140151977539    0.0000000000000000
     0.0000000000000000    0.0000000000000000   40.9044494628906250
 H   Ir  O  
   1  20  42
Cartesian
  3.0987780094146729  0.1173204630613327 25.4369468688964844
  6.7963376045227051  1.6987023353576660 15.5066051483154297
 11.3287744522094727  4.8996496200561523 15.4849414825439453
  2.4032349586486816  1.5657010078430176 15.5223922729492188
  6.9458045959472656  4.7466220855712891 15.5306701660156250
  4.4966297149658203  3.1993257999420166 17.7248592376708984
 -0.0466814339160919  0.0121640143916011 17.7301216125488281
  9.0587215423583984  3.2501244544982910 13.3883304595947266
  4.2951135635375977  0.0568842850625515 13.1866178512573242
  6.8411269187927246  1.4973832368850708 20.0945358276367188
 11.3846197128295898  4.6608557701110840 20.1067562103271484
  2.2730090618133545  1.5959529876708984 20.0743770599365234
  6.8164200782775879  4.7878136634826660 20.0729656219482422
  4.5903124809265137  3.1786184310913086 22.4181652069091797
  0.0557302236557007  0.0032293759286404 22.4370059967041016
  9.1064453125000000  3.2283222675323486 17.8175449371337891
  4.5416498184204102 -0.0015544381458312 17.8006572723388672
  2.2669444084167480  1.4303370714187622 24.7593574523925781
  6.6858758926391602  4.8271727561950684 24.6178779602050781
  9.3464460372924805  3.1293931007385254 22.4171867370605469
  4.5733361244201660 -0.0513633117079735 22.2149829864501953
  3.2817330360412598  0.0119792781770229 11.9638252258300781
 12.2206926345825195  3.1352827548980713 11.8563394546508789
  7.6786046028137207 -0.0474696233868599 11.8560333251953125
  9.9403314590454102  1.6078112125396729 12.3702220916748047
 14.5130357742309570  4.7785716056823730 12.3831472396850586
  5.9780869483947754  3.1926541328430176 14.6854267120361328
  1.4328466653823853 -0.0029534196946770 14.6918239593505859
 10.4967918395996094  3.1932818889617920 14.6434469223022461
  5.9623117446899414  0.0018393887439743 14.6595916748046875
  8.2114152908325195  1.5821605920791626 14.1064701080322266
 12.7795724868774414  4.7617473602294922 14.1399087905883789
  3.6601095199584961  1.5432664155960083 14.1315479278564453
  8.1859197616577148  4.7153100967407227 14.0931339263916016
  7.6733822822570801  3.1792023181915283 16.3910236358642578
  3.1416928768157959 -0.0064877122640610 16.4022693634033203
 12.2330474853515625  3.1737694740295410 16.4002628326416016
  7.6836428642272949 -0.0201487541198730 16.3940658569335938
  5.4203338623046875  1.5864545106887817 16.9326114654541016
  9.9632291793823242  4.7720112800598145 16.9382057189941406
  9.9595775604248047  1.5921849012374878 16.9224567413330078
 14.5069885253906250  4.7841677665710449 16.9252319335937500
  5.9458193778991699  3.2057609558105469 19.2018547058105469
  1.4019777774810791  0.0139496279880404 19.2009220123291016
 10.4604368209838867  3.2412436008453369 19.1631469726562500
  5.9568967819213867 -0.0034099656622857 19.2062606811523438
  8.2113847732543945  1.5984950065612793 18.6658382415771484
 12.7630567550659180  4.7947893142700195 18.6688213348388672
  3.6724920272827148  1.5965859889984131 18.6766166687011719
  8.2201595306396484  4.7815089225769043 18.6732749938964844
  7.6722593307495117  3.1838619709014893 20.9411602020263672
  3.1415829658508301 -0.0054158465936780 20.9651107788085938
 12.1920089721679688  3.1919412612915039 20.8967094421386719
  7.6569223403930664 -0.0047926171682775 20.9165897369384766
  5.4204440116882324  1.6025919914245605 21.4932518005371094
  9.9464197158813477  4.8076949119567871 21.4645462036132812
  9.9700670242309570  1.6557073593139648 21.4579257965087891
 14.5396718978881836  4.8498339653015137 21.5080566406250000
  5.9567456245422363  3.2364099025726318 23.7456760406494141
  1.3884868621826172  0.0444882661104202 23.7160587310791016
 10.3521308898925781  3.1787507534027100 23.6361293792724609
  3.6856079101562500  1.5891845226287842 23.2293205261230469
  8.2109613418579102  4.7908520698547363 23.2197551727294922
