H  Ir O 
 1.0000000000000000
     9.0898780822753906    0.0000000000000000   -4.5449390411376953
     9.0898780822753906    6.3790140151977539    0.0000000000000000
     0.0000000000000000    0.0000000000000000   40.9044494628906250
 H   Ir  O  
   1  20  42
Cartesian
  3.0817506313323975  0.4950110316276550 25.4684963226318359
  6.7586250305175781  1.5999622344970703 15.5122117996215820
 11.3934164047241211  4.7950663566589355 15.5695648193359375
  2.3630497455596924  1.5499079227447510 15.6425809860229492
  6.8408770561218262  4.7198081016540527 15.5633831024169922
  4.5219430923461914  3.2022233009338379 17.8166599273681641
 -0.0955957919359207  0.0130342394113541 17.7072677612304688
  9.0453004837036133  3.1736154556274414 13.4539356231689453
  4.4601931571960449  0.0840347036719322 13.2542009353637695
  6.8832521438598633  1.5757480859756470 20.0865764617919922
 11.3074026107788086  4.7345638275146484 20.0031547546386719
  2.2732515335083008  1.5805687904357910 20.0668544769287109
  6.8230671882629395  4.7787618637084961 20.0792045593261719
  4.6339907646179199  3.1685371398925781 22.4321079254150391
  0.0486469380557537 -0.0122327161952853 22.3481388092041016
  9.0597162246704102  3.2147214412689209 17.7548904418945312
  4.5690274238586426 -0.0102631319314241 17.8326568603515625
  2.2866151332855225  1.5466923713684082 24.6037235260009766
  6.7952013015747070  4.8348464965820312 24.5744781494140625
  9.1864004135131836  3.0864183902740479 22.3623161315917969
  4.5876431465148926  0.0053331744857132 22.1358470916748047
  4.2481532096862793  0.7113184332847595 11.6512975692749023
 12.2255353927612305  3.0862939357757568 11.9219436645507812
  7.6265592575073242 -0.1116573065519333 11.8007707595825195
  9.8878250122070312  1.6323852539062500 12.3837661743164062
 14.4441986083984375  4.7911100387573242 12.3919572830200195
  5.8926553726196289  3.1873230934143066 14.7443494796752930
  1.4832701683044434  0.0048277014866471 14.7610406875610352
 10.6668329238891602  3.2196133136749268 14.5461311340332031
  5.8266892433166504 -0.0207620318979025 14.7272100448608398
  8.0021190643310547  1.5795233249664307 13.9661207199096680
 12.8303318023681641  4.7991814613342285 14.2173433303833008
  3.6532540321350098  1.4758799076080322 14.2582988739013672
  8.1014423370361328  4.6423354148864746 14.1192026138305664
  7.6700291633605957  3.1268675327301025 16.3766117095947266
  3.0522863864898682 -0.0569103732705116 16.6040878295898438
 12.2724123001098633  3.1363439559936523 16.4533214569091797
  7.6854863166809082 -0.0072269127704203 16.3905544281005859
  5.4007611274719238  1.5955997705459595 16.9563808441162109
  9.9131269454956055  4.7924323081970215 16.8804359436035156
  9.9198369979858398  1.6081956624984741 16.8681850433349609
 14.5454511642456055  4.7706031799316406 16.9702243804931641
  5.9675850868225098  3.1873564720153809 19.2163619995117188
  1.3479237556457520  0.0270109139382839 19.1462402343750000
 10.4520015716552734  3.2382144927978516 19.0581207275390625
  5.9473390579223633  0.0423613749444485 19.2315216064453125
  8.2355260848999023  1.5860863924026489 18.6337490081787109
 12.8005981445312500  4.7615509033203125 18.7114753723144531
  3.7155351638793945  1.5777992010116577 18.7245426177978516
  8.1620454788208008  4.7968072891235352 18.6167449951171875
  7.8214955329895020  3.1899871826171875 20.8831481933593750
  2.9918241500854492 -0.0644335895776749 21.0147552490234375
 12.1877622604370117  3.1571276187896729 20.7945747375488281
  7.7385921478271484 -0.0155125502496958 20.8560638427734375
  5.6318106651306152  1.6001116037368774 21.6264972686767578
  9.9093818664550781  4.7580628395080566 21.4026908874511719
 10.0087909698486328  1.7057750225067139 21.3741836547851562
 14.6185007095336914  4.9106612205505371 21.4799365997314453
  6.0040931701660156  3.2951185703277588 23.7871265411376953
  1.4452067613601685  0.0718100890517235 23.6621532440185547
  9.3358612060546875  2.4856157302856445 23.9777870178222656
  3.7700433731079102  1.5316730737686157 23.2189598083496094
  8.2835617065429688  4.7745008468627930 23.2028427124023438
