Ir O 
 1.0000000000000000
    12.8550291061401367    0.0000000000000000    0.0000000000000000
     6.4275140762329102    6.4275140762329102    3.1895070075988770
     0.0000000000000000    0.0000000000000000   38.2740821838378906
 Ir  O  
  28  48
Cartesian
  3.2165317535400391 -0.0622063167393208 13.8780269622802734
  9.6375741958618164 -0.0604713372886181 13.8785343170166016
  6.4285326004028320  3.1321723461151123 16.9455718994140625
 12.8525476455688477  3.2326130867004395 16.8540630340576172
  3.2063386440277100  3.2095971107482910 15.5133104324340820
  9.6452445983886719  3.2112035751342773 15.5073890686035156
  0.0009050533990376  0.0635123848915100 15.4642429351806641
  6.4261989593505859  0.0595174953341484 15.4401321411132812
  3.2124199867248535  0.0066902064718306 16.9839286804199219
  9.6408634185791016  0.0077664293348789 16.9838447570800781
  6.4279026985168457  3.2152113914489746 20.1978645324707031
 12.8549127578735352  3.2155008316040039 20.1948146820068359
  3.2153637409210205  3.2129356861114502 18.6044769287109375
  9.6409854888916016  3.2131679058074951 18.6032924652099609
  0.0000311085059366  0.0085592633113265 18.6292667388916016
  6.4283385276794434 -0.0010377863654867 18.5890674591064453
  3.2127795219421387  0.0085957068949938 20.2094516754150391
  9.6433734893798828 -0.0023865359835327 20.1994323730468750
  6.4143557548522949  3.3048086166381836 23.4453182220458984
 12.8601636886596680  3.1786284446716309 23.5459442138671875
  3.2144587039947510  3.2131578922271729 21.7949829101562500
  9.6405057907104492  3.2023279666900635 21.7612781524658203
  0.0035733818076551 -0.0644964426755905 21.7905006408691406
  6.4226016998291016 -0.0596295893192291 21.7525787353515625
  3.2135331630706787  0.0566069222986698 23.3395404815673828
  9.6396217346191406 -0.0397569388151169 23.3625526428222656
  3.2115762233734131  3.2217714786529541 24.8990745544433594
  9.6497163772583008  3.1733605861663818 24.9646377563476562
  6.4277195930480957  1.9732551574707031 15.4314575195312500
 12.8547735214233398  1.9033484458923340 15.3965559005737305
  4.4681096076965332  3.2421388626098633 16.9997482299804688
 10.8993597030639648  3.2431414127349854 17.0110054016113281
  3.2152085304260254  1.2381491661071777 15.3627033233642578
  9.6408262252807617  1.2389696836471558 15.3598079681396484
 12.8564481735229492  4.4258069992065430 15.5305461883544922
  8.3858871459960938  3.2417862415313721 17.0004367828369141
 14.8142986297607422  3.2463767528533936 17.0079536437988281
  9.6411123275756836  5.1998000144958496 18.5845985412597656
 16.0683193206787109  5.1983976364135742 18.5857734680175781
  6.4267201423645020  1.9822770357131958 18.6353397369384766
 12.8556861877441406  1.9795944690704346 18.6001701354980469
  1.2434644699096680 -0.0085947429761291 17.0244216918945312
  7.6699581146240234 -0.0032009661663324 17.0189113616943359
  4.4394826889038086  3.2137567996978760 20.2012672424316406
 10.8682594299316406  3.2140936851501465 20.1991786956787109
  3.2121746540069580  1.2284872531890869 18.6097965240478516
  9.6430482864379883  1.2347543239593506 18.6014118194580078
  6.4275164604187012  4.4695358276367188 18.5695228576660156
 12.8556308746337891  4.4693117141723633 18.5772743225097656
  5.1848859786987305 -0.0031620797235519 17.0179252624511719
 11.6130428314208984 -0.0078562218695879 17.0246086120605469
  8.4119768142700195  3.2143704891204834 20.1982498168945312
 14.8457345962524414  3.2139537334442139 20.2017765045166016
  9.6423130035400391  5.1938223838806152 21.7950401306152344
 16.0675125122070312  5.1906886100769043 21.7963581085205078
  6.4290556907653809  1.9530165195465088 21.8321266174316406
 12.8539075851440430  1.9508136510848999 21.8236598968505859
  1.2452952861785889  0.0015535301063210 20.1838417053222656
  7.6732420921325684  0.0067805130966008 20.1819553375244141
  4.4645414352416992  3.1869421005249023 23.3971157073974609
 10.8968715667724609  3.2301423549652100 23.3549957275390625
  3.2139391899108887  1.2308162450790405 21.8156299591064453
  9.6409559249877930  1.2278189659118652 21.7749576568603516
  6.4249076843261719  4.4435257911682129 21.7641792297363281
 12.8566875457763672  4.4479322433471680 21.8012371063232422
  5.1861772537231445  0.0068799466826022 20.1830768585205078
 11.6056470870971680  0.0011836909689009 20.1831207275390625
  8.3799781799316406  3.2184522151947021 23.3606681823730469
 14.8198041915893555  3.1864383220672607 23.3908729553222656
  9.6412000656127930  5.2609162330627441 25.0201034545898438
 16.0691471099853516  5.2057323455810547 25.0409431457519531
 12.8675613403320312  2.0171868801116943 24.8564872741699219
  6.4286203384399414  4.4631915092468262 24.9666748046875000
 12.8547534942626953  4.5339374542236328 25.0107803344726562
  9.6385660171508789  1.1232813596725464 24.7084579467773438
  9.6376085281372070  1.8957132101058960 26.4201660156250000
