Ir O 
 1.0000000000000000
    12.8550291061401367    0.0000000000000000    0.0000000000000000
     6.4275140762329102    6.4275140762329102    3.1895070075988770
     0.0000000000000000    0.0000000000000000   38.2740821838378906
 Ir  O  
  28  48
Cartesian
 11.0798435211181641  5.7813472747802734 17.0977630615234375
 14.6066923141479492  5.8149447441101074 17.0757160186767578
  6.4493675231933594  3.0890357494354248 17.0103664398193359
 12.9029207229614258  3.2999153137207031 16.9967842102050781
  3.3781075477600098  2.1424069404602051 15.5797567367553711
  9.4815206527709961  2.1644015312194824 15.5291814804077148
 12.8991775512695312  0.1661848574876785 15.5243959426879883
 12.8579864501953125  6.3905830383300781 18.7422657012939453
  3.2470927238464355  0.0796935260295868 17.0206909179687500
  9.6512193679809570  0.0997766107320786 16.9536514282226562
  6.4692907333374023  3.2430603504180908 20.1831245422363281
 12.8657016754150391  3.1738359928131104 20.2325172424316406
  3.2452390193939209  3.2313601970672607 18.5946216583251953
  9.6688194274902344  3.2659211158752441 18.5736236572265625
 12.8526115417480469  0.0063233883120120 18.5898647308349609
 12.8417282104492188  6.4032235145568848 21.8774089813232422
  9.6991901397705078  6.3942718505859375 23.4762992858886719
 16.0878047943115234  6.3662948608398438 23.3551540374755859
  6.3921146392822266  3.3245718479156494 23.3699550628662109
 12.9419994354248047  3.0497066974639893 23.4107456207275391
  3.2777724266052246  3.2029449939727783 21.8064994812011719
  9.6740970611572266  3.1993150711059570 21.8146076202392578
  6.5325083732604980  6.3500509262084961 24.8990058898925781
  6.7840743064880371  0.0182304214686155 21.8665714263916016
  2.0197930335998535  0.2513220906257629 23.1874370574951172
  8.9280681610107422  0.1396899968385696 23.3342952728271484
 15.4822244644165039  4.3758149147033691 24.8977203369140625
  9.4717569351196289  3.1725616455078125 25.0767440795898438
  6.4261150360107422  1.8936997652053833 15.5105886459350586
 12.8842906951904297  2.0524322986602783 15.4508447647094727
  4.4591388702392578  3.1687216758728027 16.9425430297851562
 10.8769483566284180  3.4925479888916016 16.9011878967285156
  3.9270606040954590  1.1565295457839966 14.1092739105224609
  8.9525403976440430  1.1729679107666016 14.0600605010986328
 12.8614425659179688  5.3629903793334961 16.0935268402099609
  8.4486856460571289  3.1768221855163574 16.9231910705566406
 14.9357719421386719  3.2828147411346436 16.9089813232421875
  9.7599678039550781  5.2908258438110352 18.5383777618408203
 15.9199619293212891  5.2696771621704102 18.5086765289306641
  6.4634814262390137  1.9896494150161743 18.6639518737792969
 12.8819036483764648  1.9795320034027100 18.5408267974853516
  7.7238998413085938  6.3775825500488281 20.2284545898437500
  7.6992688179016113  0.0340134389698505 17.1256141662597656
  4.4979381561279297  3.2112593650817871 20.1922054290771484
 10.8895473480224609  3.2120952606201172 20.1974449157714844
  3.2792384624481201  1.2247818708419800 18.6609764099121094
  9.7940778732299805  1.2837944030761719 18.5598030090332031
  6.4688377380371094  4.5109367370605469 18.5556793212890625
 12.9005041122436523  4.4106125831604004 18.7196502685546875
  5.1775107383728027  0.0225567184388638 17.1356849670410156
 18.0312519073486328  6.3584866523742676 20.1808395385742188
  8.4470319747924805  3.2419106960296631 20.1967544555664062
 14.8725786209106445  3.2051703929901123 20.2200889587402344
  9.7294225692749023  5.1620631217956543 21.8538455963134766
 16.1548061370849609  5.1750726699829102 21.7514114379882812
  6.4642524719238281  1.9978808164596558 21.8255653381347656
 12.7721385955810547  1.8994871377944946 21.7699756622314453
  1.2792551517486572  0.0626813098788261 20.1337680816650391
  7.7202916145324707  0.1038974225521088 20.1364307403564453
  4.4754290580749512  3.2175614833831787 23.4157905578613281
 10.8589916229248047  3.1049101352691650 23.4875659942626953
  3.1838786602020264  1.2169710397720337 21.8737754821777344
  9.6299953460693359  1.1828961372375488 21.7569561004638672
  6.4936232566833496  4.4628534317016602 21.7482872009277344
 12.7514142990112305  4.4098525047302246 21.8804492950439453
 11.6607131958007812  6.3682484626770020 23.5154590606689453
 18.0343608856201172  6.3593220710754395 23.3506526947021484
  8.4224071502685547  3.2950351238250732 23.3605499267578125
 14.8929328918457031  3.3494510650634766 23.3160858154296875
  9.5038042068481445  5.2703666687011719 25.1516437530517578
 16.3013992309570312  4.9079675674438477 26.5191783905029297
 13.7383737564086914  1.3132407665252686 24.2442665100097656
  6.4170255661010742  4.4633288383483887 24.8875808715820312
 13.4758920669555664  4.4151206016540527 25.0388679504394531
  9.1236820220947266  1.2768516540527344 24.8114261627197266
  9.2848148345947266  3.2913718223571777 26.7990646362304688
