Ir C  O 
 1.0000000000000000
     9.0898780822753906    0.0000000000000000   -4.5449390411376953
     9.0898780822753906    6.3790140151977539    0.0000000000000000
     0.0000000000000000    0.0000000000000000   40.9044494628906250
 Ir  C   O  
  20   1  43
Cartesian
  6.7716264724731445  1.5932217836380005 15.5143880844116211
 11.3824882507324219  4.7999539375305176 15.5464591979980469
  2.3569750785827637  1.5532404184341431 15.6146745681762695
  6.8702883720397949  4.7160558700561523 15.5649633407592773
  4.5104541778564453  3.2109231948852539 17.7882785797119141
 -0.0706899836659431 -0.0113866040483117 17.7229194641113281
  9.0521850585937500  3.1562774181365967 13.4474296569824219
  4.4806795120239258  0.0961626172065735 13.2346076965332031
  6.8399496078491211  1.5657556056976318 20.0817985534667969
 11.3390941619873047  4.7662458419799805 20.0624713897705078
  2.2847959995269775  1.5784032344818115 20.0812702178955078
  6.8092894554138184  4.7703847885131836 20.0709571838378906
  4.5739402770996094  3.1747012138366699 22.4063339233398438
  0.0162487030029297 -0.0366152226924896 22.3578453063964844
  9.0730371475219727  3.1693885326385498 17.7785015106201172
  4.5488352775573730 -0.0042072148062289 17.8170719146728516
  2.1560204029083252  1.6315978765487671 24.5383453369140625
  6.7211031913757324  4.8123269081115723 24.5682888031005859
  9.1324634552001953  3.0841658115386963 22.3732452392578125
  4.6657991409301758 -0.0517306774854660 22.3330383300781250
 14.9900827407836914  6.1955323219299316 23.7256698608398438
  4.3314175605773926  0.7286482453346252 11.6262598037719727
 12.2146387100219727  3.0925774574279785 11.8935880661010742
  7.6629528999328613 -0.1241017431020737 11.8080873489379883
  9.8975877761840820  1.6162949800491333 12.3831100463867188
 14.4581699371337891  4.7921257019042969 12.3748903274536133
  5.9237694740295410  3.1880795955657959 14.7364320755004883
  1.4632464647293091  0.0097582964226604 14.7443161010742188
 10.6427164077758789  3.2099709510803223 14.5671310424804688
  5.8294477462768555 -0.0148599129170179 14.7214078903198242
  8.0206642150878906  1.5600968599319458 13.9742059707641602
 12.8132553100585938  4.8126091957092285 14.1784000396728516
  3.6450524330139160  1.4863420724868774 14.2230997085571289
  8.1192798614501953  4.6357169151306152 14.1078853607177734
  7.7185530662536621  3.1224367618560791 16.3615264892578125
  3.0626885890960693 -0.0514235273003578 16.5560817718505859
 12.2472791671752930  3.1613490581512451 16.4322357177734375
  7.6808466911315918 -0.0246825106441975 16.3866615295410156
  5.3973078727722168  1.6011685132980347 16.9415893554687500
  9.9337778091430664  4.7672271728515625 16.8965606689453125
  9.9487018585205078  1.5722452402114868 16.9030666351318359
 14.5139503479003906  4.7697358131408691 16.9481773376464844
  5.9635128974914551  3.1958339214324951 19.1791877746582031
  1.3662651777267456  0.0206169094890356 19.1748695373535156
 10.5070133209228516  3.2367610931396484 19.0965747833251953
  5.9650096893310547  0.0331311300396919 19.1630973815917969
  8.2194643020629883  1.5706430673599243 18.6549797058105469
 12.7709083557128906  4.7728009223937988 18.7026119232177734
  3.6946907043457031  1.5905036926269531 18.6981678009033203
  8.1781826019287109  4.7716240882873535 18.6325759887695312
  7.7752547264099121  3.1732428073883057 20.8917007446289062
  3.1156432628631592 -0.0389149822294712 20.9800281524658203
 12.1420917510986328  3.1663079261779785 20.8751621246337891
  7.6312727928161621 -0.0335064083337784 20.9039955139160156
  5.4337110519409180  1.6379749774932861 21.4586505889892578
  9.9121561050415039  4.7544164657592773 21.4343185424804688
  9.9673767089843750  1.6824599504470825 21.3997325897216797
 14.5623407363891602  4.8052353858947754 21.4549732208251953
  5.9464383125305176  3.2669317722320557 23.7606620788574219
  1.3812303543090820  0.0896911025047302 23.7287368774414062
  9.2820091247558594  2.4703071117401123 23.9900531768798828
  3.6776032447814941  1.5756809711456299 23.2296485900878906
  8.2259988784790039  4.7696337699890137 23.2226581573486328
  6.6385316848754883 -0.3135430216789246 24.6078681945800781
