Ir C  O 
 1.0000000000000000
     9.0898780822753906    0.0000000000000000   -4.5449390411376953
     9.0898780822753906    6.3790140151977539    0.0000000000000000
     0.0000000000000000    0.0000000000000000   40.9044494628906250
 Ir  C   O  
  20   1  43
Cartesian
  6.8001132011413574  1.6878358125686646 15.5074329376220703
 11.3310661315917969  4.8956346511840820 15.4849100112915039
  2.4056880474090576  1.5631738901138306 15.5219841003417969
  6.9471454620361328  4.7439360618591309 15.5300941467285156
  4.4987316131591797  3.1936144828796387 17.7243995666503906
 -0.0432206429541111  0.0053158877417445 17.7309398651123047
  9.0598077774047852  3.2483317852020264 13.3809070587158203
  4.2985825538635254  0.0544721856713295 13.1848173141479492
  6.8365559577941895  1.4984999895095825 20.1105632781982422
 11.3960485458374023  4.6804876327514648 20.1087951660156250
  2.2720518112182617  1.5745376348495483 20.0720539093017578
  6.8200678825378418  4.7795977592468262 20.0726413726806641
  4.6026587486267090  3.1735501289367676 22.4170265197753906
  0.0528107360005379 -0.0151743981987238 22.4231147766113281
  9.0949525833129883  3.1879761219024658 17.8022480010986328
  4.5462164878845215 -0.0047130067832768 17.8028469085693359
  2.1411383152008057  1.6266393661499023 24.6227874755859375
  6.6916675567626953  4.8231730461120605 24.6176052093505859
  9.3412237167358398  3.1342806816101074 22.4139251708984375
  4.5629105567932129 -0.1090297847986221 22.2507228851318359
 15.0191392898559570  5.5108785629272461 24.2777156829833984
  3.2854821681976318  0.0126090142875910 11.9700813293457031
 12.2199306488037109  3.1371870040893555 11.8567647933959961
  7.6779303550720215 -0.0446210131049156 11.8568353652954102
  9.9375562667846680  1.6095769405364990 12.3707027435302734
 14.5107412338256836  4.7826142311096191 12.3832769393920898
  5.9775519371032715  3.1938664913177490 14.6862230300903320
  1.4319522380828857 -0.0019939520861953 14.6923465728759766
 10.5023622512817383  3.1991367340087891 14.6500911712646484
  5.9602255821228027  0.0065513113513589 14.6597433090209961
  8.2087440490722656  1.5809894800186157 14.1071443557739258
 12.7788314819335938  4.7628755569458008 14.1403732299804688
  3.6603233814239502  1.5429286956787109 14.1307325363159180
  8.1855325698852539  4.7161817550659180 14.0948925018310547
  7.6796956062316895  3.1925466060638428 16.3953285217285156
  3.1404759883880615 -0.0049638934433460 16.4033031463623047
 12.2305536270141602  3.1756577491760254 16.3989448547363281
  7.6868753433227539 -0.0137364408001304 16.3985309600830078
  5.4186062812805176  1.5886805057525635 16.9329528808593750
  9.9640712738037109  4.7757711410522461 16.9350662231445312
  9.9601879119873047  1.5950657129287720 16.9237957000732422
 14.5045938491821289  4.7851166725158691 16.9257316589355469
  5.9470257759094238  3.2093579769134521 19.2017745971679688
  1.4008551836013794  0.0164709333330393 19.2024078369140625
 10.4979724884033203  3.1938691139221191 19.2051258087158203
  5.9556641578674316  0.0005700924666598 19.2052135467529297
  8.2125616073608398  1.6026146411895752 18.6668300628662109
 12.7561550140380859  4.7956614494323730 18.6677951812744141
  3.6703426837921143  1.5976401567459106 18.6757278442382812
  8.2161340713500977  4.7861256599426270 18.6769409179687500
  7.6720910072326660  3.1836423873901367 20.9415454864501953
  3.1312479972839355  0.0048611275851727 20.9467048645019531
 12.1999139785766602  3.1883666515350342 20.9091320037841797
  7.6561985015869141 -0.0029310293029994 20.9129447937011719
  5.4220376014709473  1.6362335681915283 21.4607620239257812
  9.9440059661865234  4.8053464889526367 21.4622669219970703
  9.9774799346923828  1.6460778713226318 21.4673233032226562
 14.5291442871093750  4.8395638465881348 21.4838104248046875
  5.9563269615173340  3.2441616058349609 23.7481403350830078
  1.4111467599868774  0.0578634627163410 23.7458953857421875
 10.3525495529174805  3.1792685985565186 23.6375789642333984
  3.6770107746124268  1.5939877033233643 23.2255458831787109
  8.2094507217407227  4.7901163101196289 23.2195301055908203
  5.9937863349914551 -0.3343821763992310 24.0001430511474609
