Ir O 
 1.0000000000000000
     9.5685205459594727    0.0000000000000000    0.0000000000000000
     0.0000000000000000    9.0898780822753906   -4.5449390411376953
     0.0000000000000000    0.0000000000000000   36.3595123291015625
 Ir  O  
  33  68
Cartesian
  1.5931646823883057  2.2530658245086670 13.4235401153564453
  4.7858490943908691  2.2530679702758789 13.4235410690307617
  7.9737677574157715  2.2504334449768066 13.4247083663940430
  1.5958288908004761  6.8103399276733398  8.9551715850830078
  4.7831902503967285  6.8103423118591309  8.9551620483398438
  7.9737620353698730  6.9312725067138672  8.8476781845092773
 -0.0063870833255351  4.4612503051757812 11.0920524597167969
  3.1895041465759277  4.4661588668823242 11.0914545059204102
  6.3854041099548340  4.4612493515014648 11.0920515060424805
 -0.0025568045675755 -0.0044743106700480 15.7159004211425781
  3.1895048618316650 -0.0055882753804326 15.7176904678344727
  6.3815727233886719 -0.0044749467633665 15.7159013748168945
  1.5946596860885620  2.2685422897338867 17.9850158691406250
  4.7843565940856934  2.2685420513153076 17.9850158691406250
  7.9737653732299805  2.2691056728363037 17.9844856262207031
  1.5946688652038574  6.8213267326354980 13.4508171081542969
  4.7843465805053711  6.8213257789611816 13.4508190155029297
  7.9737658500671387  6.8207616806030273 13.4513406753540039
  0.0001862991048256  4.5449304580688477 15.7179164886474609
  3.1895053386688232  4.5449304580688477 15.7179193496704102
  6.3788294792175293  4.5449323654174805 15.7179193496704102
 -0.0025516375899315  0.0044679478742182 20.2648906707763672
  3.1895062923431396  0.0055855480022728 20.2631053924560547
  6.3815660476684570  0.0044667660258710 20.2648906707763672
  1.5958335399627686  2.2795453071594238 22.4806385040283203
  4.7831850051879883  2.2795455455780029 22.4806365966796875
  7.9737615585327148  2.1586585044860840 22.5881748199462891
  1.5931682586669922  6.8367829322814941 18.0122814178466797
  4.7858510017395020  6.8367872238159180 18.0122833251953125
  7.9737625122070312  6.8394117355346680 18.0111198425292969
 -0.0063853613100946  4.6286220550537109 20.3437957763671875
  3.1895048618316650  4.6237068176269531 20.3443927764892578
  6.3854017257690430  4.6286225318908691 20.3437957763671875
  0.0018434713128954  1.4194825887680054 12.5921888351440430
  3.1894996166229248  1.4157738685607910 12.5923833847045898
  6.3771777153015137  1.4194810390472412 12.5921878814697266
 -0.0000780791306170  5.9545416831970215 12.5818929672241211
  3.1894991397857666  5.9547271728515625 12.5817232131958008
  6.3790998458862305  5.9545478820800781 12.5818862915039062
  1.5967344045639038  3.6800348758697510 12.0553483963012695
  4.7822833061218262  3.6800367832183838 12.0553455352783203
  7.9737634658813477  3.6784765720367432 12.0575542449951172
  7.9737653732299805  8.1309785842895508  7.5580344200134277
 -0.0001580719690537  3.2027306556701660  9.8268585205078125
  3.1895031929016113  3.2023282051086426  9.8268995285034180
  6.3791756629943848  3.2027335166931152  9.8268547058105469
  0.0074483281932771  7.6817111968994141  9.7573575973510742
  3.1894938945770264  7.6911854743957520  9.7416954040527344
  6.3715791702270508  7.6817088127136230  9.7573623657226562
  1.5944070816040039  0.8748003840446472 14.8453817367553711
  4.7846112251281738  0.8748022317886353 14.8453788757324219
  7.9737629890441895  0.8762050867080688 14.8455219268798828
  1.5948958396911621  5.4258360862731934 10.2864503860473633
  4.7841262817382812  5.4258360862731934 10.2864513397216797
  7.9737591743469238  5.4154934883117676 10.2999725341796875
  0.0005707622622140  1.4032776355743408 17.1200275421142578
  3.1895000934600830  1.4036108255386353 17.1198844909667969
  6.3784503936767578  1.4032785892486572 17.1200313568115234
  0.0001279311254621  5.9439611434936523 17.1171398162841797
  3.1895072460174561  5.9432301521301270 17.1172637939453125
  6.3788857460021973  5.9439582824707031 17.1171474456787109
  1.5945093631744385  3.6744399070739746 16.5883083343505859
  4.7845106124877930  3.6744396686553955 16.5883064270019531
  7.9737620353698730  3.6744787693023682 16.5883445739746094
  1.5947824716567993  8.2181549072265625 12.0437498092651367
  4.7842388153076172  8.2181482315063477 12.0437555313110352
  7.9737601280212402  8.2188911437988281 12.0432825088500977
  0.0001308973733103  3.1459386348724365 14.3186902999877930
  3.1894989013671875  3.1466648578643799 14.3185768127441406
  6.3788909912109375  3.1459360122680664 14.3186979293823242
  0.0005690399557352  7.6865978240966797 14.3157949447631836
  3.1895043849945068  7.6862845420837402 14.3159618377685547
  6.3784475326538086  7.6866016387939453 14.3157930374145508
  1.5947890281677246  0.8717237710952759 19.3920955657958984
  4.7842273712158203  0.8717201948165894 19.3921012878417969
  7.9737648963928223  0.8709879517555237 19.3925628662109375
  1.5945045948028564  5.4154338836669922 14.8475446701049805
  4.7845120429992676  5.4154310226440430 14.8475475311279297
  7.9737648963928223  5.4153985977172852 14.8475046157836914
  0.0074757896363735  1.4081782102584839 21.6784687042236328
  3.1895043849945068  1.3987046480178833 21.6941261291503906
  6.3715410232543945  1.4081789255142212 21.6784687042236328
 -0.0001582633412909  5.8871402740478516 21.6089668273925781
  3.1894996166229248  5.8875522613525391 21.6089191436767578
  6.3791799545288086  5.8871450424194336 21.6089611053466797
  1.5948925018310547  3.6640315055847168 21.1494178771972656
  4.7841258049011230  3.6640300750732422 21.1494197845458984
  7.9737639427185059  3.6743950843811035 21.1358718872070312
  1.5944131612777710  8.2150812149047852 16.5904674530029297
  4.7846031188964844  8.2150840759277344 16.5904655456542969
  7.9737653732299805  8.2136707305908203 16.5903377532958984
 -0.0000754956272431  3.1353392601013184 18.8539505004882812
  3.1895039081573486  3.1351594924926758 18.8541011810302734
  6.3790926933288574  3.1353425979614258 18.8539428710937500
  0.0018409834010527  7.6704044342041016 18.8436355590820312
  3.1895027160644531  7.6741085052490234 18.8434429168701172
  6.3771772384643555  7.6703996658325195 18.8436374664306641
  7.9737625122070312  0.9588823318481445 23.8778285980224609
  1.5967384576797485  5.4098424911499023 19.3805122375488281
  4.7822837829589844  5.4098496437072754 19.3805065155029297
  7.9737591743469238  5.4114012718200684 19.3783035278320312
