Ir O 
 1.0000000000000000
     9.5685205459594727    0.0000000000000000    0.0000000000000000
     0.0000000000000000    9.0898780822753906   -4.5449390411376953
     0.0000000000000000    0.0000000000000000   36.3595123291015625
 Ir  O  
  33  68
Cartesian
  1.5889233350753784  2.2601966857910156 13.4732236862182617
  4.7901253700256348  2.2602038383483887 13.4732217788696289
  7.9737744331359863  2.2487413883209229 13.4669265747070312
  1.9352663755416870  6.7642369270324707  9.2299299240112305
  4.4437093734741211  6.7642564773559570  9.2298765182495117
  7.9737291336059570  6.9526739120483398  9.0038824081420898
 -0.0154469422996044  4.4033570289611816 11.0918817520141602
  3.1895091533660889  4.2921924591064453 11.0717210769653320
  6.3944306373596191  4.4033627510070801 11.0918340682983398
  0.0011833390453830  0.0239096507430077 15.7482728958129883
  3.1894915103912354  0.1339056342840195 15.7933979034423828
  6.3778200149536133  0.0239252857863903 15.7482652664184570
  1.5956494808197021  2.3239078521728516 18.0696544647216797
  4.7833852767944336  2.3239181041717529 18.0696487426757812
  7.9737753868103027  2.3096220493316650 18.0365428924560547
  1.5956703424453735  6.7659840583801270 13.3661546707153320
  4.7833404541015625  6.7660079002380371 13.3661403656005859
  7.9737610816955566  6.7802634239196777 13.3993816375732422
 -0.0000339682483173  4.5448436737060547 15.7178564071655273
  3.1895191669464111  4.5448546409606934 15.7178697586059570
  6.3790736198425293  4.5448427200317383 15.7178707122802734
  0.0011892714537680 -0.0238657481968403 20.2325725555419922
  3.1894969940185547 -0.1337316483259201 20.1873550415039062
  6.3778033256530762 -0.0238734744489193 20.2325553894042969
  1.9351145029067993  2.3259189128875732 22.2064399719238281
  4.4439291954040527  2.3259160518646240 22.2063827514648438
  7.9736957550048828  2.1372532844543457 22.4320125579833984
  1.5889574289321899  6.8296303749084473 17.9624691009521484
  4.7900819778442383  6.8296356201171875 17.9624614715576172
  7.9737768173217773  6.8411331176757812 17.9687843322753906
 -0.0153438886627555  4.6863913536071777 20.3438796997070312
  3.1895234584808350  4.7975301742553711 20.3640327453613281
  6.3944082260131836  4.6864356994628906 20.3438682556152344
  0.0012789284810424  1.3921391963958740 12.6648654937744141
  3.1895241737365723  1.4044630527496338 12.6667470932006836
  6.3777666091918945  1.3920408487319946 12.6649656295776367
 -0.0003261908714194  5.9072022438049316 12.4971256256103516
  3.1895043849945068  5.8835487365722656 12.4416713714599609
  6.3793163299560547  5.9072518348693848 12.4970703125000000
  1.5784374475479126  3.6359801292419434 12.0657138824462891
  4.8006167411804199  3.6359796524047852 12.0656833648681641
  7.9737324714660645  3.6960992813110352 12.1094303131103516
  7.9737133979797363  7.3079361915588379  7.3198003768920898
 -0.1070660054683685  3.0904433727264404  9.8656864166259766
  3.1895098686218262  2.9210605621337891  9.9069089889526367
  6.4860315322875977  3.0904214382171631  9.8656635284423828
  0.0521843209862709  7.6175498962402344  9.8338041305541992
  3.1894810199737549  8.1756677627563477  9.5989675521850586
  6.3267922401428223  7.6175780296325684  9.8338041305541992
  1.5755796432495117  0.9884597063064575 14.9590606689453125
  4.8034229278564453  0.9884699583053589 14.9590549468994141
  7.9737734794616699  0.8827287554740906 14.8815126419067383
  1.5980786085128784  5.1331224441528320 10.1087503433227539
  4.7809262275695801  5.1331439018249512 10.1086626052856445
  7.9737529754638672  5.4125847816467285 10.2676506042480469
  0.0012263973476365  1.4402790069580078 17.1669025421142578
  3.1895086765289307  1.4486364126205444 17.2498130798339844
  6.3778009414672852  1.4403204917907715 17.1668663024902344
 -0.0060606054030359  5.9394125938415527 17.1120052337646484
  3.1895058155059814  5.9337601661682129 17.1123332977294922
  6.3851041793823242  5.9393639564514160 17.1120567321777344
  1.5960325002670288  3.7009725570678711 16.6323623657226562
  4.7830028533935547  3.7009804248809814 16.6323738098144531
  7.9737844467163086  3.6899855136871338 16.6130847930908203
  1.6061108112335205  8.2383356094360352 12.0364742279052734
  4.7728729248046875  8.2383527755737305 12.0364570617675781
  7.9737610816955566  8.2003059387207031 12.0294942855834961
 -0.0060963919386268  3.1503183841705322 14.3236789703369141
  3.1895151138305664  3.1558930873870850 14.3234376907348633
  6.3851475715637207  3.1503081321716309 14.3237047195434570
  0.0011956823291257  7.6495614051818848 14.2690286636352539
  3.1894955635070801  7.6412630081176758 14.1861572265625000
  6.3778390884399414  7.6495981216430664 14.2689943313598633
  1.6060650348663330  0.8516345024108887 19.3993816375732422
  4.7729415893554688  0.8516229391098022 19.3993644714355469
  7.9737477302551270  0.8896958231925964 19.4066619873046875
  1.5960310697555542  5.3887696266174316 14.8033905029296875
  4.7830286026000977  5.3887925148010254 14.8033905029296875
  7.9737586975097656  5.3998675346374512 14.8228025436401367
  0.0521227009594440  1.4723041057586670 21.6021118164062500
  3.1894860267639160  0.9148775935173035 21.8364048004150391
  6.3267621994018555  1.4722356796264648 21.6021480560302734
 -0.1067091971635818  5.9992060661315918 21.5703659057617188
  3.1894230842590332  6.1684913635253906 21.5291652679443359
  6.4859285354614258  5.9992747306823730 21.5703105926513672
  1.5980862379074097  3.9569039344787598 21.3274002075195312
  4.7809939384460449  3.9569547176361084 21.3273773193359375
  7.9737558364868164  3.6772003173828125 21.1677932739257812
  1.5757005214691162  8.1015033721923828 16.4768180847167969
  4.8033180236816406  8.1014919281005859 16.4767932891845703
  7.9737420082092285  8.2072305679321289 16.5543956756591797
 -0.0002534701197874  3.1826179027557373 18.9387950897216797
  3.1895225048065186  3.2062919139862061 18.9942340850830078
  6.3793048858642578  3.1826264858245850 18.9387950897216797
  0.0012864876771346  7.6978325843811035 18.7706394195556641
  3.1895134449005127  7.6853222846984863 18.7688846588134766
  6.3777570724487305  7.6977629661560059 18.7707118988037109
  7.9736399650573730  1.7822561264038086 24.1158466339111328
  1.5784950256347656  5.4537658691406250 19.3700885772705078
  4.8005661964416504  5.4538221359252930 19.3701076507568359
  7.9738068580627441  5.3937520980834961 19.3263339996337891
