Ir O 
 1.0000000000000000
     9.0898780822753906    0.0000000000000000    0.0000000000000000
     0.0000000000000000    9.5685205459594727   -4.5449390411376953
     0.0000000000000000    0.0000000000000000   36.3595123291015625
 Ir  O  
  36  56
Cartesian
  2.2724695205688477  1.5947567224502563 12.8773260116577148
  6.8174085617065430  1.5947567224502563 12.8773260116577148
  2.2724695205688477  4.7842602729797363 12.8773393630981445
  6.8174085617065430  4.7842602729797363 12.8773393630981445
  2.2724695205688477  7.9737644195556641  8.3323774337768555
  6.8174085617065430  7.9737644195556641  8.3323774337768555
  0.0000000000000000  0.0000000000000000 15.1498088836669922
  4.5449390411376953  0.0000000000000000 15.1498088836669922
  0.0000000000000000  3.1895039081573486 10.6048469543457031
  4.5449390411376953  3.1895039081573486 10.6048469543457031
  0.0000000000000000  6.3790173530578613 10.6048564910888672
  4.5449390411376953  6.3790173530578613 10.6048564910888672
  2.2724695205688477  1.5947567224502563 17.4222640991210938
  6.8174085617065430  1.5947567224502563 17.4222640991210938
  2.2724695205688477  4.7842602729797363 17.4222774505615234
  6.8174085617065430  4.7842602729797363 17.4222774505615234
  2.2724695205688477  7.9737644195556641 12.8773164749145508
  6.8174085617065430  7.9737644195556641 12.8773164749145508
  0.0000000000000000  0.0000000000000000 19.6947479248046875
  4.5449390411376953  0.0000000000000000 19.6947479248046875
  0.0000000000000000  3.1895039081573486 15.1497859954833984
  4.5449390411376953  3.1895039081573486 15.1497859954833984
  0.0000000000000000  6.3790173530578613 15.1497955322265625
  4.5449390411376953  6.3790173530578613 15.1497955322265625
  2.2724695205688477  1.5947567224502563 21.9672031402587891
  6.8174085617065430  1.5947567224502563 21.9672031402587891
  2.2724695205688477  4.7842602729797363 21.9672164916992188
  6.8174085617065430  4.7842602729797363 21.9672164916992188
  2.2724695205688477  7.9737644195556641 17.4222564697265625
  6.8174085617065430  7.9737644195556641 17.4222564697265625
  0.0000000000000000  0.0000000000000000 24.2396869659423828
  4.5449390411376953  0.0000000000000000 24.2396869659423828
  0.0000000000000000  3.1895039081573486 19.6947250366210938
  4.5449390411376953  3.1895039081573486 19.6947250366210938
  0.0000000000000000  6.3790173530578613 19.6947345733642578
  4.5449390411376953  6.3790173530578613 19.6947345733642578
  3.1434888839721680  0.0000000000000000 13.7483310699462891
  7.6884279251098633  0.0000000000000000 13.7483310699462891
  3.1434888839721680  3.1895039081573486 13.7483453750610352
  7.6884279251098633  3.1895039081573486 13.7483453750610352
  0.8710193634033203  1.5947567224502563 14.2787666320800781
  5.4159584045410156  1.5947567224502563 14.2787666320800781
  0.8710193634033203  7.9737644195556641  9.7338552474975586
  5.4159584045410156  7.9737644195556641  9.7338552474975586
  1.4014501571655273  3.1895039081573486 12.0063247680664062
  5.9463891983032227  3.1895039081573486 12.0063247680664062
  1.4014501571655273  6.3790173530578613 12.0062971115112305
  5.9463891983032227  6.3790173530578613 12.0062971115112305
  3.6739196777343750  4.7842602729797363 11.4758615493774414
  8.2188587188720703  4.7842602729797363 11.4758615493774414
  3.6739196777343750  7.9737644195556641 11.4758758544921875
  8.2188587188720703  7.9737644195556641 11.4758758544921875
  3.1434888839721680  0.0000000000000000 18.2932701110839844
  7.6884279251098633  0.0000000000000000 18.2932701110839844
  3.1434888839721680  3.1895039081573486 18.2932834625244141
  7.6884279251098633  3.1895039081573486 18.2932834625244141
  3.1434888839721680  6.3790173530578613 13.7483539581298828
  7.6884279251098633  6.3790173530578613 13.7483539581298828
  0.8710193634033203  1.5947567224502563 18.8237056732177734
  5.4159584045410156  1.5947567224502563 18.8237056732177734
  0.8710193634033203  4.7842602729797363 14.2787799835205078
  5.4159584045410156  4.7842602729797363 14.2787799835205078
  0.8710193634033203  7.9737644195556641 14.2787942886352539
  5.4159584045410156  7.9737644195556641 14.2787942886352539
  1.4014501571655273  0.0000000000000000 16.5512504577636719
  5.9463891983032227  0.0000000000000000 16.5512504577636719
  1.4014501571655273  3.1895039081573486 16.5512638092041016
  5.9463891983032227  3.1895039081573486 16.5512638092041016
  1.4014501571655273  6.3790173530578613 16.5512371063232422
  5.9463891983032227  6.3790173530578613 16.5512371063232422
  3.6739196777343750  1.5947567224502563 16.0208244323730469
  8.2188587188720703  1.5947567224502563 16.0208244323730469
  3.6739196777343750  4.7842602729797363 16.0208015441894531
  8.2188587188720703  4.7842602729797363 16.0208015441894531
  3.6739196777343750  7.9737644195556641 16.0208148956298828
  8.2188587188720703  7.9737644195556641 16.0208148956298828
  3.1434888839721680  0.0000000000000000 22.8382091522216797
  7.6884279251098633  0.0000000000000000 22.8382091522216797
  3.1434888839721680  6.3790173530578613 18.2932929992675781
  7.6884279251098633  6.3790173530578613 18.2932929992675781
  0.8710193634033203  4.7842602729797363 18.8237190246582031
  5.4159584045410156  4.7842602729797363 18.8237190246582031
  0.8710193634033203  7.9737644195556641 18.8237323760986328
  5.4159584045410156  7.9737644195556641 18.8237323760986328
  1.4014501571655273  0.0000000000000000 21.0961894989013672
  5.9463891983032227  0.0000000000000000 21.0961894989013672
  1.4014501571655273  3.1895039081573486 21.0962028503417969
  5.9463891983032227  3.1895039081573486 21.0962028503417969
  3.6739196777343750  1.5947567224502563 20.5657634735107422
  8.2188587188720703  1.5947567224502563 20.5657634735107422
  3.6739196777343750  4.7842602729797363 20.5657405853271484
  8.2188587188720703  4.7842602729797363 20.5657405853271484
