Ir O 
 1.0000000000000000
     9.0898780822753906    0.0000000000000000    0.0000000000000000
     0.0000000000000000    9.5685205459594727   -4.5449390411376953
     0.0000000000000000    0.0000000000000000   36.3595123291015625
 Ir  O  
  36  56
Cartesian
  2.2923283576965332  1.4795053005218506 12.9550952911376953
  6.8372821807861328  1.4795058965682983 12.9550676345825195
  2.2667570114135742  4.7527327537536621 12.8865661621093750
  6.8116841316223145  4.7527241706848145 12.8865575790405273
  2.0434165000915527  8.4440488815307617  8.4476509094238281
  6.5883622169494629  8.4440450668334961  8.4476413726806641
  0.0057678911834955 -0.0314825400710106 15.1590490341186523
  4.5507259368896484 -0.0314897149801254 15.1590442657470703
  0.2290147542953491  3.6597611904144287 10.7201290130615234
  4.7739591598510742  3.6597685813903809 10.7201042175292969
 -0.0200180932879448  6.2637672424316406 10.6825122833251953
  4.5249013900756836  6.2637743949890137 10.6824874877929688
  2.2724533081054688  1.5947175025939941 17.4222793579101562
  6.8173918724060059  1.5946888923645020 17.4222774505615234
  2.2689466476440430  4.7846484184265137 17.4247932434082031
  6.8138914108276367  4.7846751213073730 17.4247894287109375
  2.2760412693023682  7.9733467102050781 12.8748064041137695
  6.8209648132324219  7.9733467102050781 12.8748207092285156
  0.0035086020361632  0.0003321233671159 19.6972255706787109
  4.5484557151794434  0.0003458063583821 19.6972236633300781
 -0.0035734127741307  3.1890060901641846 15.1472253799438477
  4.5413837432861328  3.1890001296997070 15.1472339630126953
 -0.0000074537001638  6.3790249824523926 15.1498422622680664
  4.5449376106262207  6.3790044784545898 15.1498327255249023
  2.2525560855865479  1.7100415229797363 21.8894519805908203
  6.7974963188171387  1.7100334167480469 21.8894462585449219
  2.5016276836395264  4.3137893676757812 21.8518543243408203
  7.0465550422668457  4.3137874603271484 21.8518314361572266
  2.2781777381896973  8.0052700042724609 17.4130802154541016
  6.8231153488159180  8.0052671432495117 17.4130821228027344
 -0.2291828244924545 -0.4704141318798065 24.1242637634277344
  4.3157644271850586 -0.4704156816005707 24.1242504119873047
 -0.0056803557090461  3.2210109233856201 19.6855525970458984
  4.5392661094665527  3.2210109233856201 19.6855449676513672
  0.0198929253965616  6.4942626953125000 19.6169433593750000
  4.5648221969604492  6.4942674636840820 19.6169281005859375
  3.4447290897369385  0.0338203199207783 13.5215206146240234
  7.9897131919860840  0.0338101759552956 13.5214586257934570
  3.2191634178161621  3.2048201560974121 13.6836938858032227
  7.7640662193298340  3.2048096656799316 13.6836910247802734
  0.8479244709014893  1.5940922498703003 14.2688484191894531
  5.3928713798522949  1.5940916538238525 14.2688426971435547
  0.6943793892860413  7.8791379928588867  9.6154193878173828
  5.2392997741699219  7.8791160583496094  9.6153612136840820
  1.5781184434890747  3.0947570800781250 11.8878927230834961
  6.1230826377868652  3.0947337150573730 11.8878231048583984
  1.4245816469192505  6.3783783912658691 11.9964647293090820
  5.9694952964782715  6.3783855438232422 11.9964637756347656
  3.3725991249084473  4.8180246353149414 11.2489690780639648
  7.9175753593444824  4.8180279731750488 11.2490358352661133
  3.5983703136444092  7.9891633987426758 11.4111585617065430
  8.1432638168334961  7.9891695976257324 11.4111642837524414
  3.1558089256286621  0.0021442098077387 18.2882499694824219
  7.7007322311401367  0.0021383729763329 18.2882518768310547
  3.1622934341430664  3.1991317272186279 18.2624378204345703
  7.7072100639343262  3.1991448402404785 18.2624473571777344
  3.1453211307525635  6.3716907501220703 13.7388324737548828
  7.6902337074279785  6.3716797828674316 13.7388715744018555
  0.8728249073028564  1.6021425724029541 18.8332271575927734
  5.4177680015563965  1.6021347045898438 18.8332366943359375
  0.8898286223411560  4.7746663093566895 14.3096895217895508
  5.4347505569458008  4.7746577262878418 14.3096475601196289
  0.8833161592483521  7.9717779159545898 14.2838144302368164
  5.4282507896423340  7.9717741012573242 14.2838172912597656
  1.3826973438262939 -0.0095317782834172 16.5821418762207031
  5.9276642799377441 -0.0095373280346394 16.5820980072021484
  1.3891067504882812  3.1873810291290283 16.5562133789062500
  5.9340519905090332  3.1873791217803955 16.5562095642089844
  1.3996908664703369  6.3864021301269531 16.5608062744140625
  5.9446330070495605  6.3864016532897949 16.5608062744140625
  3.6720798015594482  1.5874187946319580 16.0113277435302734
  8.2169799804687500  1.5874305963516235 16.0112895965576172
  3.6615793704986572  4.7863302230834961 16.0158290863037109
  8.2065038681030273  4.7863464355468750 16.0158157348632812
  3.6551437377929688  7.9833874702453613 15.9900255203247070
  8.2000675201416016  7.9833898544311523 15.9900274276733398
  2.9665803909301758  0.0948498770594597 22.9567241668701172
  7.5115237236022949  0.0948671996593475 22.9567298889160156
  3.1204485893249512  6.3796868324279785 18.3031215667724609
  7.6654119491577148  6.3796787261962891 18.3031101226806641
  0.9466409683227539  4.7689247131347656 18.8882961273193359
  5.4915995597839355  4.7689256668090820 18.8882942199707031
  1.1724601984024048  7.9399175643920898 19.0507965087890625
  5.7173995971679688  7.9399142265319824 19.0507717132568359
  1.3259055614471436 -0.0153291532769799 21.1607742309570312
  5.8708367347717285 -0.0153128867968917 21.1607742309570312
  1.0999723672866821  3.1556146144866943 21.3232727050781250
  5.6449055671691895  3.1556272506713867 21.3232803344726562
  3.6969892978668213  1.5953094959259033 20.5754585266113281
  8.2419500350952148  1.5953152179718018 20.5754642486572266
  3.8508098125457764  4.8791851997375488 20.6843032836914062
  8.3957462310791016  4.8791871070861816 20.6843147277832031
