H  Pb O 
 1.0000000000000000
     7.9706358909606934    0.0000000000000000   -0.1105389967560768
    11.2313508987426758   10.7797908782958984    1.3991899490356445
     0.0000000000000000    0.0000000000000000   34.2088966369628906
 H   Pb  O  
   1  24  49
Cartesian
  9.9444580078125000  1.9581491947174072 24.0666141510009766
  8.7837505340576172  7.2332468032836914 23.4279232025146484
  5.3745393753051758  3.6178100109100342 22.0891571044921875
  2.3955285549163818  0.0581014566123486 20.8195056915283203
 12.6879453659057617  7.1609206199645996 23.6662769317626953
  9.5841941833496094  3.7712650299072266 22.3123226165771484
  6.2772560119628906  0.0005060033872724 20.7925319671630859
 10.2471666336059570  7.2081756591796875 20.4462280273437500
  7.0447058677673340  3.5984020233154297 19.1459369659423828
  3.7379114627838135  0.0033159714657813 17.6475944519042969
 14.1867370605468750  7.2303266525268555 20.4786319732666016
 10.9277448654174805  3.5628347396850586 19.0235443115234375
  7.7782392501831055  0.0488955155014992 17.6101608276367188
 11.6441068649291992  7.2185153961181641 17.3454074859619141
  8.3921604156494141  3.6083321571350098 15.9163980484008789
 16.4419288635253906 10.6927289962768555 16.0251026153564453
  7.6469521522521973  7.1445388793945312 17.4469337463378906
  4.4955654144287109  3.6511397361755371 16.0639133453369141
  1.2471466064453125  0.0134873511269689 14.5466423034667969
 13.1156120300292969  7.1751666069030762 14.2037296295166016
 10.2109813690185547  3.6301317214965820 12.9489698410034180
 17.8935909271240234 10.7156629562377930 13.0106582641601562
  9.0483055114746094  7.1641063690185547 14.2015466690063477
  5.9227385520935059  3.2475526332855225 12.9101572036743164
  2.7716369628906250  0.0553001128137112 11.3813295364379883
  8.7095661163330078  5.2298278808593750 23.8512172698974609
  5.5341148376464844  1.3726868629455566 22.2987213134765625
 13.6260118484497070  8.5938568115234375 22.1919651031494141
 16.6792278289794922  9.2659120559692383 23.7536125183105469
 13.6535873413085938  5.8577179908752441 22.1266326904296875
 10.3039255142211914  2.2561516761779785 20.6942806243896484
 10.7736368179321289  7.1888213157653809 22.5898666381835938
  7.4622273445129395  3.5680336952209473 21.3618850708007812
  3.7306830883026123  0.1229795217514038 22.6616878509521484
  8.2682886123657227  7.2751994132995605 21.3531475067138672
 11.6582612991333008  3.8867516517639160 23.1801681518554688
 11.6348333358764648 10.3973960876464844 23.1222534179687500
 10.1779775619506836  4.9852123260498047 20.5634365081787109
  7.0386090278625488  1.4012544155120850 19.1930522918701172
 14.8573122024536133  8.5692281723022461 18.8809680938720703
 10.3697710037231445  9.4331779479980469 20.7052249908447266
  6.9880342483520508  5.8045125007629395 19.0598640441894531
  3.7697575092315674  2.2157168388366699 17.6000118255615234
 12.2055625915527344  7.1802496910095215 19.5245971679687500
  8.9553661346435547  3.5941400527954102 18.0857028961181641
 15.5715131759643555 10.7119674682617188 21.1405754089355469
  9.6840209960937500  7.2429366111755371 18.3490428924560547
  4.9949507713317871  3.6808388233184814 19.9794292449951172
  1.8035224676132202  0.0540495477616787 18.6600399017333984
 11.6388206481933594  5.0003104209899902 17.4542980194091797
  8.4569520950317383  1.4123078584671021 15.9868507385253906
 16.3832931518554688  8.5198936462402344 15.8029079437255859
 11.7415084838867188  9.4356269836425781 17.5211257934570312
  8.3719139099121094  5.7861752510070801 15.8518753051757812
  5.1984515190124512  2.1257016658782959 14.6017265319824219
 13.6162996292114258  7.1562070846557617 16.3775711059570312
 10.4284439086914062  3.5500490665435791 15.0677938461303711
 16.9693336486816406 10.6887702941894531 18.1290397644042969
 11.0919637680053711  7.2179908752441406 15.2223873138427734
  6.4771656990051270  3.6103026866912842 16.9709339141845703
  3.2151439189910889  0.0013661228585988 15.4891843795776367
  5.1161041259765625  4.8826160430908203 14.3013963699340820
  1.8616249561309814  1.4608983993530273 12.8887033462524414
  9.9734840393066406  8.6917257308959961 12.6637983322143555
 12.9726152420043945  9.4820299148559570 14.2304010391235352
  9.9360580444335938  5.7918581962585449 12.6804456710815430
  6.7592310905456543  1.9718304872512817 11.2216739654541016
 15.0211191177368164  7.3606348037719727 13.2127771377563477
  4.0253067016601562  3.3441457748413086 11.8782444000244141
  7.1713480949401855  0.0854617506265640 13.6760406494140625
 11.6994028091430664  7.1528558731079102 12.3679981231689453
  7.9546451568603516  3.6885545253753662 13.6455278396606445
 15.9152717590332031 10.7621984481811523 13.8673133850097656
  9.1172361373901367  2.1049838066101074 23.5594177246093750
