H  Pb O 
 1.0000000000000000
     7.9706358909606934    0.0000000000000000   -0.1105389967560768
    11.2313508987426758   10.7797908782958984    1.3991899490356445
     0.0000000000000000    0.0000000000000000   34.2088966369628906
 H   Pb  O  
   1  24  49
Cartesian
  9.7395725250244141  2.2144169807434082 24.2904701232910156
  8.8160133361816406  7.1865310668945312 23.7203121185302734
  5.5552902221679688  3.5932600498199463 22.2105827331542969
  2.2945787906646729  0.0000000000000000 20.7008552551269531
 12.8013315200805664  7.1865310668945312 23.6650428771972656
  9.5406084060668945  3.5932600498199463 22.1553134918212891
  6.2798967361450195  0.0000000000000000 20.6455860137939453
 10.2652177810668945  7.1865310668945312 20.5903167724609375
  7.0044951438903809  3.5932600498199463 19.0805892944335938
  3.7437837123870850  0.0000000000000000 17.5708599090576172
 14.2505359649658203  7.1865310668945312 20.5350475311279297
 10.9898138046264648  3.5932600498199463 19.0253181457519531
  7.7291016578674316  0.0000000000000000 17.5155906677246094
 11.7144231796264648  7.1865310668945312 17.4602890014648438
  8.4537000656127930  3.5932600498199463 15.9505596160888672
  5.1929888725280762  0.0000000000000000 14.4408321380615234
  7.7291054725646973  7.1865310668945312 17.5155582427978516
  4.4683823585510254  3.5932600498199463 16.0058288574218750
  1.2076709270477295  0.0000000000000000 14.4961013793945312
 13.1636285781860352  7.1865310668945312 14.3302946090698242
  9.9029054641723633  3.5932600498199463 12.8205652236938477
  6.6421937942504883  0.0000000000000000 11.3108377456665039
  9.1783103942871094  7.1865310668945312 14.3855638504028320
  5.9175877571105957  3.5932600498199463 12.8758354187011719
  2.6568760871887207  0.0000000000000000 11.3661069869995117
  8.8160047531127930  4.9721031188964844 23.7202968597412109
  5.5552926063537598  1.3788430690765381 22.2105693817138672
 13.5259323120117188  8.5653743743896484 22.1000308990478516
 16.7866458892822266  9.4009475708007812 23.6097526550292969
 13.5259351730346680  5.8076877593994141 22.1000251770019531
 10.2652120590209961  2.2144169807434082 20.5902957916259766
 10.7918462753295898  7.1865310668945312 22.7346172332763672
  7.5311231613159180  3.5932600498199463 21.2248878479003906
  2.8212065696716309  0.0000000000000000 22.8451538085937500
  8.2893772125244141  7.1865310668945312 21.5759792327880859
 11.5500850677490234  3.5932600498199463 23.0857048034667969
  0.3187377750873566  0.0000000000000000 21.6865158081054688
 10.2652091979980469  4.9721031188964844 20.5903015136718750
  7.0044980049133301  1.3788430690765381 19.0805740356445312
 14.9751377105712891  8.5653743743896484 18.9700374603271484
 10.2652158737182617  9.4009475708007812 20.5902976989746094
  7.0045042037963867  5.8076877593994141 19.0805702209472656
  3.7437813282012939  2.2144169807434082 17.5708408355712891
 12.2410507202148438  7.1865310668945312 19.6046218872070312
  8.9803285598754883  3.5932600498199463 18.0948925018310547
  4.2704114913940430  0.0000000000000000 19.7151603698730469
  9.7385826110839844  7.1865310668945312 18.4459838867187500
  5.0286545753479004  3.5932600498199463 20.0662498474121094
  1.7679429054260254  0.0000000000000000 18.5565223693847656
 11.7144145965576172  4.9721031188964844 17.4603080749511719
  8.4537029266357422  1.3788430690765381 15.9505805969238281
 16.4243431091308594  8.5653743743896484 15.8400421142578125
 11.7144203186035156  9.4009475708007812 17.4603023529052734
  8.4537096023559570  5.8076877593994141 15.9505748748779297
  5.1929864883422852  2.2144169807434082 14.4408464431762695
 13.6902637481689453  7.1865310668945312 16.4746284484863281
 10.4295415878295898  3.5932600498199463 14.9648990631103516
  5.7196249961853027  0.0000000000000000 16.5851650238037109
 11.1877956390380859  7.1865310668945312 15.3159894943237305
  6.4778676033020020  3.5932600498199463 16.9362545013427734
  3.2171559333801270  0.0000000000000000 15.4265270233154297
  5.1929836273193359  4.9721031188964844 14.4408521652221680
  1.9322720766067505  1.3788430690765381 12.9311246871948242
  9.9029111862182617  8.5653743743896484 12.8205871582031250
 13.1636257171630859  9.4009475708007812 14.3303089141845703
  9.9029140472412109  5.8076877593994141 12.8205804824829102
  6.6421914100646973  2.2144169807434082 11.3108520507812500
 15.1394691467285156  7.1865310668945312 13.3446331024169922
  3.9081106185913086  3.5932600498199463 11.9454431533813477
  7.1688299179077148  0.0000000000000000 13.4551715850830078
 12.6370000839233398  7.1865310668945312 12.1859951019287109
  7.9270725250244141  3.5932600498199463 13.8062610626220703
  4.6663608551025391  0.0000000000000000 12.2965326309204102
  8.8159990310668945  2.2144169807434082 23.7202911376953125
