Pb O 
 1.0000000000000000
     7.9706358909606934    0.0000000000000000   -0.1105389967560768
    11.2313508987426758   10.7797908782958984    1.3991899490356445
     0.0000000000000000    0.0000000000000000   34.2088966369628906
 Pb  O  
  24  48
Cartesian
  8.7694349288940430  7.2307529449462891 23.4027214050292969
  5.2516427040100098  3.5563416481018066 22.0925331115722656
  2.3207523822784424  0.0066466033458710 20.8413066864013672
 12.6695117950439453  7.1317958831787109 23.6493930816650391
  9.5345582962036133  3.9268393516540527 22.1382217407226562
  6.3870987892150879  0.0146949030458927 20.8351249694824219
 10.2478485107421875  7.2681899070739746 20.4034900665283203
  7.0548105239868164  3.5792198181152344 19.1286563873291016
  3.7882523536682129 -0.0229772329330444 17.7036113739013672
 14.1824207305908203  7.1718873977661133 20.4761009216308594
 10.9462957382202148  3.5384795665740967 18.9881572723388672
  7.7941670417785645  0.0370295532047749 17.5950660705566406
 11.6699800491333008  7.2094869613647461 17.3275108337402344
  8.4033861160278320  3.6073162555694580 15.9024515151977539
  5.2103538513183594 -0.0816726535558701 14.6276407241821289
  7.6640386581420898  7.1494646072387695 17.4360504150390625
  4.5118861198425293  3.6480355262756348 16.0429515838623047
  1.2757867574691772  0.0146178277209401 14.5550270080566406
 13.1375494003295898  7.1798777580261230 14.1898145675659180
 10.2064800262451172  3.6302032470703125 12.9385938644409180
  6.6887431144714355 -0.0441939085721970 11.6283893585205078
  9.0711936950683594  7.1718435287475586 14.1959867477416992
  5.9235906600952148  3.2597110271453857 12.8929309844970703
  2.7886404991149902  0.0547231771051884 11.3817672729492188
  8.6859817504882812  5.1944112777709961 23.8145103454589844
  5.5051922798156738  1.3862506151199341 22.3505935668945312
 13.6924724578857422  8.4841670989990234 22.1902103424072266
 16.6842498779296875  9.2571954727172852 23.7557411193847656
 13.5872783660888672  5.7317380905151367 22.1406230926513672
 10.3165378570556641  2.2962405681610107 20.7468013763427734
 10.7560625076293945  7.1875495910644531 22.5646095275878906
  7.4951100349426270  3.4957284927368164 21.3929042816162109
  3.7453689575195312  0.0150467557832599 22.6672458648681641
  8.2708854675292969  7.0845003128051758 21.3395404815673828
 11.4393396377563477  3.8483283519744873 23.1642742156982422
  0.4137451648712158 -0.1865538805723190 21.8244094848632812
 10.2573089599609375  5.0515322685241699 20.4485969543457031
  7.0701727867126465  1.3998073339462280 19.1862297058105469
 14.9404907226562500  8.5412092208862305 18.9255237579345703
 10.2688722610473633  9.4419527053833008 20.6344318389892578
  6.9686479568481445  5.7744908332824707 19.0372982025146484
  3.7731556892395020  2.1986999511718750 17.5842723846435547
 12.2232971191406250  7.2176656723022461 19.5058708190917969
  8.9684743881225586  3.5876450538635254 18.0745925903320312
  4.3380951881408691  0.0059576672501862 19.8184852600097656
  9.7013330459594727  7.2300500869750977 18.3113651275634766
  5.0162491798400879  3.6401741504669189 19.9742736816406250
  1.8139126300811768  0.0192687679082155 18.6624183654785156
 11.6849880218505859  4.9878206253051758 17.4468612670898438
  8.4895362854003906  1.4120280742645264 15.9938135147094727
 16.4207401275634766  8.5243711471557617 15.7959194183349609
 11.7490482330322266  9.4250879287719727 17.5047740936279297
  8.3880338668823242  5.7866940498352051 15.8449306488037109
  5.2008485794067383  2.1349711418151855 14.5825471878051758
 13.6442813873291016  7.1672077178955078 16.3687725067138672
 10.4419336318969727  3.5463495254516602 15.0568733215332031
  5.7568769454956055 -0.0435405448079109 16.7197742462158203
 11.1201372146606445  7.1805086135864258 15.2127017974853516
  6.4897055625915527  3.5988984107971191 16.9565601348876953
  3.2348954677581787 -0.0311848577111959 15.5253000259399414
  5.1417164802551270  4.8902711868286133 14.2843704223632812
  1.8708304166793823  1.4547587633132935 12.8905048370361328
 10.0053796768188477  8.7092065811157227 12.6746358871459961
 12.9972105026245117  9.4821386337280273 14.2402381896972656
  9.9530410766601562  5.8002743721008301 12.6805801391601562
  6.7721433639526367  1.9922270774841309 11.2166604995727539
 15.0445489883422852  7.3731589317321777 13.2067766189575195
  4.0188121795654297  3.3381471633911133 11.8668966293334961
  7.1872916221618652  0.1020259782671928 13.6915998458862305
 11.7128820419311523  7.1715588569641113 12.3639402389526367
  7.9630770683288574  3.6907868385314941 13.6382369995117188
  4.7021083831787109 -0.0009886146290228 12.4665460586547852
