Pb O 
 1.0000000000000000
    10.5563735961914062    0.0000000000000000   -4.2045669555664062
     9.0132875442504883    5.4952421188354492   -1.9371069669723511
     0.0000000000000000    0.0000000000000000   36.8500480651855469
 Pb  O  
  15  32
Cartesian
  5.1158170700073242  1.5354586839675903 11.6109104156494141
 17.4464874267578125  4.9956173896789551  8.8476543426513672
  9.6057796478271484  2.7543368339538574 11.7223358154296875
  2.3779201507568359  0.6323391199111938 14.5999603271484375
 14.5841188430786133  4.1088185310363770 11.5197830200195312
  7.3664698600769043  2.0581641197204590 14.7885684967041016
  0.1093172580003738  0.0267466064542532 17.9133567810058594
 12.2318601608276367  3.4349629878997803 14.7143535614013672
  4.7834577560424805  1.3470977544784546 17.6575298309326172
 17.0959205627441406  4.8103122711181641 14.6402397155761719
  9.8786258697509766  2.7598464488983154 17.9077606201171875
  2.5139727592468262  0.7409344911575317 20.9700107574462891
 14.8569622039794922  4.1145401000976562 17.7066116333007812
  7.0163769721984863  1.8743138313293457 20.5824470520019531
 -0.2234037369489670 -0.1604510694742203 23.9600734710693359
 11.1977472305297852  2.6425333023071289 10.0137357711791992
 11.3977804183959961  0.7681233882904053  8.7981052398681641
  8.2658090591430664  1.5788251161575317 10.4800577163696289
  8.3988380432128906  4.5699071884155273 11.4926004409790039
 15.3930673599243164  5.1763777732849121  9.7332553863525391
  6.4171805381774902  2.8146729469299316 12.9248666763305664
 13.3948440551757812  2.7488908767700195 10.1341419219970703
  4.1623821258544922  0.2800846695899963 13.2618112564086914
 11.1450719833374023  0.9899957776069641 11.7565355300903320
 11.0643634796142578  3.9352884292602539 12.8776035308837891
  7.8192863464355469  4.2263283729553223 14.8148994445800781
  9.1311779022216797  1.6174852848052979 13.5356998443603516
  5.4647274017333984  2.4277000427246094 15.8565835952758789
 15.9436445236206055  5.3833980560302734 12.8524856567382812
  3.5099995136260986  0.0933424010872841 16.4360351562500000
 13.9141979217529297  3.0315408706665039 13.3469858169555664
 10.5480566024780273  3.8373699188232422 16.0807247161865234
 11.9393091201782227  1.2810678482055664 14.9293975830078125
  8.5187711715698242  1.4853136539459229 16.5757865905761719
  8.4420757293701172  4.4418826103210449 17.7782859802246094
 15.3310852050781250  5.2519516944885254 15.8933458328247070
  6.0867047309875488  2.6426346302032471 18.8189907073974609
 13.3990764617919922  2.9336218833923340 16.5505504608154297
  4.3031740188598633  0.3830908536911011 19.6085929870605469
 11.2862243652343750  1.0930109024047852 18.1035995483398438
 11.0650873184204102  4.1195139884948730 19.2951869964599609
  7.4869937896728516  4.0555214881896973 20.7102584838867188
  9.0695409774780273  1.6942489147186279 19.6957702636718750
  5.5068340301513672  2.2985546588897705 22.1418457031250000
 16.1956768035888672  5.2906627655029297 18.9500999450683594
  4.0502448081970215  0.6041095852851868 22.5665321350097656
 13.2625293731689453  4.2259516716003418 19.4140453338623047
