Pb C  O 
 1.0000000000000000
    10.5563735961914062    0.0000000000000000   -4.2045669555664062
     9.0132875442504883    5.4952421188354492   -1.9371069669723511
     0.0000000000000000    0.0000000000000000   36.8500480651855469
 Pb  C   O  
  15   1  33
Cartesian
  5.0437679290771484  1.4817631244659424 11.6566505432128906
 17.4065093994140625  4.9213638305664062  8.7905263900756836
  9.5109739303588867  2.7320404052734375 11.8133382797241211
  2.4995238780975342  0.7441276311874390 14.8150005340576172
 14.5520915985107422  4.0313715934753418 11.4968852996826172
  7.3098092079162598  2.0193209648132324 14.8245944976806641
  0.0781567841768265 -0.0025835330598056 17.8484821319580078
 12.2244396209716797  3.4301161766052246 14.7153062820434570
  4.8321442604064941  1.3609313964843750 17.8080673217773438
 17.1037559509277344  4.8267483711242676 14.6698379516601562
  9.8682174682617188  2.7707679271697998 17.9164981842041016
  2.4383029937744141  0.6721263527870178 20.8292007446289062
 14.9224262237548828  4.1658277511596680 17.8641948699951172
  7.0628132820129395  1.9971688985824585 20.7240238189697266
 -0.1703352779150009 -0.0879536569118500 23.9950408935546875
 13.7601079940795898  4.8460283279418945 21.9999675750732422
 10.3840398788452148  3.0305519104003906  8.2139158248901367
 11.0253477096557617  2.0692522525787354  7.7848825454711914
  8.3287429809570312  1.5171002149581909 10.4315156936645508
  8.3777446746826172  4.4881596565246582 11.4976320266723633
 15.3628520965576172  5.1456389427185059  9.7278327941894531
  6.3587131500244141  2.7339923381805420 12.9646778106689453
 13.3015489578247070  2.7586646080017090 10.1678152084350586
  4.1311783790588379  0.2369541823863983 13.3151359558105469
 11.0937089920043945  1.1198805570602417 11.7268018722534180
 11.0454349517822266  4.0848627090454102 12.8850936889648438
  7.8026809692382812  4.1935267448425293 14.7723417282104492
  9.1286783218383789  1.6251299381256104 13.6182346343994141
  5.4377794265747070  2.3662185668945312 15.9198493957519531
 15.9535360336303711  5.3376693725585938 12.8610982894897461
  3.5118401050567627  0.0992117002606392 16.6194438934326172
 13.9196910858154297  3.0222182273864746 13.3962602615356445
 10.5466871261596680  3.8190250396728516 16.0716972351074219
 11.9549245834350586  1.2600088119506836 14.8032684326171875
  8.4650449752807617  1.5016273260116577 16.6206741333007812
  8.4843063354492188  4.4877452850341797 17.7868175506591797
 15.2948503494262695  5.1820640563964844 15.9421176910400391
  6.1932964324951172  2.6569929122924805 18.8707771301269531
 13.4155359268188477  2.8225753307342529 16.5746936798095703
  4.3931822776794434  0.4407821595668793 19.7710819244384766
 11.2682695388793945  1.0428088903427124 18.0076332092285156
 11.2872905731201172  4.0641598701477051 19.2179698944091797
  7.5946230888366699  4.1603507995605469 20.6999931335449219
  9.1338920593261719  1.7621734142303467 19.7358531951904297
  5.6105346679687500  2.4393968582153320 22.2372665405273438
  7.2107305526733398 -0.0788043513894081 21.0368309020996094
  3.7924077510833740 -0.0355498194694519 23.6174526214599609
 13.2166194915771484  3.1351792812347412 18.9274158477783203
 14.6969099044799805  4.2246551513671875 22.3395595550537109
