Pb C  O 
 1.0000000000000000
    10.5563735961914062    0.0000000000000000   -4.2045669555664062
     9.0132875442504883    5.4952421188354492   -1.9371069669723511
     0.0000000000000000    0.0000000000000000   36.8500480651855469
 Pb  C   O  
  15   1  33
Cartesian
  4.8924155235290527  1.3738105297088623 11.6435966491699219
 17.1234550476074219  4.8083367347717285  8.5727472305297852
  9.7848310470581055  2.7476210594177246 11.6436090469360352
  2.4462077617645264  0.6869052648544312 14.7144336700439453
 14.6772460937500000  4.1214313507080078 11.6435842514038086
  7.3386230468750000  2.0607156753540039 14.7144460678100586
  0.0000000000000000  0.0000000000000000 17.7852706909179688
 12.2310390472412109  3.4345262050628662 14.7144212722778320
  4.8924155235290527  1.3738105297088623 17.7852840423583984
 17.1234550476074219  4.8083367347717285 14.7144336700439453
  9.7848310470581055  2.7476210594177246 17.7852592468261719
  2.4462077617645264  0.6869052648544312 20.8561210632324219
 14.6772460937500000  4.1214313507080078 17.7852706909179688
  7.3386230468750000  2.0607156753540039 20.8560962677001953
  0.0000000000000000  0.0000000000000000 23.9269580841064453
 13.3144483566284180  4.9205603599548340 21.3727931976318359
 10.4857797622680664  3.8578467369079590  9.8683452606201172
 11.8261537551879883  1.2699558734893799  8.7345972061157227
  8.5150508880615234  1.4776650667190552 10.3480281829833984
  8.3123388290405273  4.3850164413452148 11.4817399978637695
 15.3781957626342773  5.2316570281982422  9.8683214187622070
  6.1621956825256348  2.6437664031982422 12.9391765594482422
 13.4074659347534180  2.8514754772186279 10.3480033874511719
  4.1914668083190918  0.2635847926139832 13.4188594818115234
 11.2573232650756836  1.1102256774902344 11.8054409027099609
 11.0546112060546875  4.0175766944885254 12.9391527175903320
  7.7435078620910645  4.2252860069274902 14.5525827407836914
  9.0838823318481445  1.6373952627182007 13.4188718795776367
  5.5933642387390137  2.4840362071990967 16.0100212097167969
 15.9470262527465820  5.3913874626159668 12.9391651153564453
  3.6226353645324707  0.1038545817136765 16.4897022247314453
 13.9762973785400391  3.0112056732177734 13.4188470840454102
 10.4857797622680664  3.8578467369079590 16.0099964141845703
 11.8261537551879883  1.2699558734893799 14.8762845993041992
  8.5150508880615234  1.4776650667190552 16.4896774291992188
  8.3123388290405273  4.3850164413452148 17.6234264373779297
 15.3781957626342773  5.2316570281982422 16.0100078582763672
  6.1621956825256348  2.6437664031982422 19.0808277130126953
 13.4074659347534180  2.8514754772186279 16.4896907806396484
  4.1914668083190918  0.2635847926139832 19.5605468750000000
 11.2573232650756836  1.1102256774902344 17.9471282958984375
 11.0546112060546875  4.0175766944885254 19.0808391571044922
  7.7435078620910645  4.2252860069274902 20.6942710876464844
  9.0838823318481445  1.6373952627182007 19.5605220794677734
  5.5933642387390137  2.4840362071990967 22.1516704559326172
 15.9470262527465820  5.3913874626159668 19.0808525085449219
  3.6226353645324707  0.1038545817136765 22.6313533782958984
 13.9762973785400391  3.0112056732177734 19.5605335235595703
 13.9929828643798828  4.2420301437377930 22.0513381958007812
